*NODE
1, 0.0, 0.0, 0.
2, 0.03, 0.0, 0.
3, 0.06, 0.0, 0.
4, 0.09, 0.0, 0.
5, 0.12, 0.0, 0.
6, 0.15, 0.0, 0.
7, 0.18, 0.0, 0.
8, 0.21, 0.0, 0.
9, 0.24, 0.0, 0.
10, 0.27, 0.0, 0.
11, 0.3, 0.0, 0.
12, 0.32999999999999996, 0.0, 0.
13, 0.36, 0.0, 0.
14, 0.39, 0.0, 0.
18, 0.51, 0.0, 0.
19, 0.54, 0.0, 0.
20, 0.57, 0.0, 0.
21, 0.6, 0.0, 0.
22, 0.63, 0.0, 0.
23, 0.6599999999999999, 0.0, 0.
24, 0.69, 0.0, 0.
25, 0.72, 0.0, 0.
26, 0.75, 0.0, 0.
27, 0.78, 0.0, 0.
28, 0.8099999999999999, 0.0, 0.
29, 0.84, 0.0, 0.
30, 0.87, 0.0, 0.
31, 0.8999999999999999, 0.0, 0.
32, 0.9299999999999999, 0.0, 0.
33, 0.96, 0.0, 0.
34, 0.99, 0.0, 0.
35, 1.02, 0.0, 0.
36, 1.05, 0.0, 0.
37, 1.08, 0.0, 0.
38, 1.1099999999999999, 0.0, 0.
39, 1.14, 0.0, 0.
40, 1.17, 0.0, 0.
41, 1.2, 0.0, 0.
42, 1.23, 0.0, 0.
43, 1.26, 0.0, 0.
44, 1.29, 0.0, 0.
45, 1.3199999999999998, 0.0, 0.
46, 1.3499999999999999, 0.0, 0.
47, 1.38, 0.0, 0.
48, 1.41, 0.0, 0.
49, 1.44, 0.0, 0.
50, 1.47, 0.0, 0.
51, 1.5, 0.0, 0.
52, 1.53, 0.0, 0.
53, 1.56, 0.0, 0.
54, 1.5899999999999999, 0.0, 0.
55, 1.6199999999999999, 0.0, 0.
56, 1.65, 0.0, 0.
57, 1.68, 0.0, 0.
58, 1.71, 0.0, 0.
59, 1.74, 0.0, 0.
60, 1.77, 0.0, 0.
61, 1.7999999999999998, 0.0, 0.
62, 1.8299999999999998, 0.0, 0.
63, 1.8599999999999999, 0.0, 0.
64, 1.89, 0.0, 0.
65, 1.92, 0.0, 0.
66, 1.95, 0.0, 0.
67, 1.98, 0.0, 0.
68, 2.01, 0.0, 0.
69, 2.04, 0.0, 0.
70, 2.07, 0.0, 0.
71, 2.1, 0.0, 0.
72, 2.13, 0.0, 0.
73, 2.16, 0.0, 0.
74, 2.19, 0.0, 0.
75, 2.2199999999999998, 0.0, 0.
76, 2.25, 0.0, 0.
77, 2.28, 0.0, 0.
78, 2.31, 0.0, 0.
79, 2.34, 0.0, 0.
80, 2.37, 0.0, 0.
81, 2.4, 0.0, 0.
82, 2.4299999999999997, 0.0, 0.
83, 2.46, 0.0, 0.
84, 2.4899999999999998, 0.0, 0.
85, 0.0, 0.03, 0.
86, 0.03, 0.03, 0.
87, 0.06, 0.03, 0.
88, 0.09, 0.03, 0.
89, 0.12, 0.03, 0.
90, 0.15, 0.03, 0.
91, 0.18, 0.03, 0.
92, 0.21, 0.03, 0.
93, 0.24, 0.03, 0.
94, 0.27, 0.03, 0.
95, 0.3, 0.03, 0.
96, 0.32999999999999996, 0.03, 0.
97, 0.36, 0.03, 0.
98, 0.39, 0.03, 0.
102, 0.51, 0.03, 0.
103, 0.54, 0.03, 0.
104, 0.57, 0.03, 0.
105, 0.6, 0.03, 0.
106, 0.63, 0.03, 0.
107, 0.6599999999999999, 0.03, 0.
108, 0.69, 0.03, 0.
109, 0.72, 0.03, 0.
110, 0.75, 0.03, 0.
111, 0.78, 0.03, 0.
112, 0.8099999999999999, 0.03, 0.
113, 0.84, 0.03, 0.
114, 0.87, 0.03, 0.
115, 0.8999999999999999, 0.03, 0.
116, 0.9299999999999999, 0.03, 0.
117, 0.96, 0.03, 0.
118, 0.99, 0.03, 0.
119, 1.02, 0.03, 0.
120, 1.05, 0.03, 0.
121, 1.08, 0.03, 0.
122, 1.1099999999999999, 0.03, 0.
123, 1.14, 0.03, 0.
124, 1.17, 0.03, 0.
125, 1.2, 0.03, 0.
126, 1.23, 0.03, 0.
127, 1.26, 0.03, 0.
128, 1.29, 0.03, 0.
129, 1.3199999999999998, 0.03, 0.
130, 1.3499999999999999, 0.03, 0.
131, 1.38, 0.03, 0.
132, 1.41, 0.03, 0.
133, 1.44, 0.03, 0.
134, 1.47, 0.03, 0.
135, 1.5, 0.03, 0.
136, 1.53, 0.03, 0.
137, 1.56, 0.03, 0.
138, 1.5899999999999999, 0.03, 0.
139, 1.6199999999999999, 0.03, 0.
140, 1.65, 0.03, 0.
141, 1.68, 0.03, 0.
142, 1.71, 0.03, 0.
143, 1.74, 0.03, 0.
144, 1.77, 0.03, 0.
145, 1.7999999999999998, 0.03, 0.
146, 1.8299999999999998, 0.03, 0.
147, 1.8599999999999999, 0.03, 0.
148, 1.89, 0.03, 0.
149, 1.92, 0.03, 0.
150, 1.95, 0.03, 0.
151, 1.98, 0.03, 0.
152, 2.01, 0.03, 0.
153, 2.04, 0.03, 0.
154, 2.07, 0.03, 0.
155, 2.1, 0.03, 0.
156, 2.13, 0.03, 0.
157, 2.16, 0.03, 0.
158, 2.19, 0.03, 0.
159, 2.2199999999999998, 0.03, 0.
160, 2.25, 0.03, 0.
161, 2.28, 0.03, 0.
162, 2.31, 0.03, 0.
163, 2.34, 0.03, 0.
164, 2.37, 0.03, 0.
165, 2.4, 0.03, 0.
166, 2.4299999999999997, 0.03, 0.
167, 2.46, 0.03, 0.
168, 2.4899999999999998, 0.03, 0.
169, 0.0, 0.06, 0.
170, 0.03, 0.06, 0.
171, 0.06, 0.06, 0.
172, 0.09, 0.06, 0.
173, 0.12, 0.06, 0.
174, 0.15, 0.06, 0.
175, 0.18, 0.06, 0.
176, 0.21, 0.06, 0.
177, 0.24, 0.06, 0.
178, 0.27, 0.06, 0.
179, 0.3, 0.06, 0.
180, 0.32999999999999996, 0.06, 0.
181, 0.36, 0.06, 0.
182, 0.39, 0.06, 0.
186, 0.51, 0.06, 0.
187, 0.54, 0.06, 0.
188, 0.57, 0.06, 0.
189, 0.6, 0.06, 0.
190, 0.63, 0.06, 0.
191, 0.6599999999999999, 0.06, 0.
192, 0.69, 0.06, 0.
193, 0.72, 0.06, 0.
194, 0.75, 0.06, 0.
195, 0.78, 0.06, 0.
196, 0.8099999999999999, 0.06, 0.
197, 0.84, 0.06, 0.
198, 0.87, 0.06, 0.
199, 0.8999999999999999, 0.06, 0.
200, 0.9299999999999999, 0.06, 0.
201, 0.96, 0.06, 0.
202, 0.99, 0.06, 0.
203, 1.02, 0.06, 0.
204, 1.05, 0.06, 0.
205, 1.08, 0.06, 0.
206, 1.1099999999999999, 0.06, 0.
207, 1.14, 0.06, 0.
208, 1.17, 0.06, 0.
209, 1.2, 0.06, 0.
210, 1.23, 0.06, 0.
211, 1.26, 0.06, 0.
212, 1.29, 0.06, 0.
213, 1.3199999999999998, 0.06, 0.
214, 1.3499999999999999, 0.06, 0.
215, 1.38, 0.06, 0.
216, 1.41, 0.06, 0.
217, 1.44, 0.06, 0.
218, 1.47, 0.06, 0.
219, 1.5, 0.06, 0.
220, 1.53, 0.06, 0.
221, 1.56, 0.06, 0.
222, 1.5899999999999999, 0.06, 0.
223, 1.6199999999999999, 0.06, 0.
224, 1.65, 0.06, 0.
225, 1.68, 0.06, 0.
226, 1.71, 0.06, 0.
227, 1.74, 0.06, 0.
228, 1.77, 0.06, 0.
229, 1.7999999999999998, 0.06, 0.
230, 1.8299999999999998, 0.06, 0.
231, 1.8599999999999999, 0.06, 0.
232, 1.89, 0.06, 0.
233, 1.92, 0.06, 0.
234, 1.95, 0.06, 0.
235, 1.98, 0.06, 0.
236, 2.01, 0.06, 0.
237, 2.04, 0.06, 0.
238, 2.07, 0.06, 0.
239, 2.1, 0.06, 0.
240, 2.13, 0.06, 0.
241, 2.16, 0.06, 0.
242, 2.19, 0.06, 0.
243, 2.2199999999999998, 0.06, 0.
244, 2.25, 0.06, 0.
245, 2.28, 0.06, 0.
246, 2.31, 0.06, 0.
247, 2.34, 0.06, 0.
248, 2.37, 0.06, 0.
249, 2.4, 0.06, 0.
250, 2.4299999999999997, 0.06, 0.
251, 2.46, 0.06, 0.
252, 2.4899999999999998, 0.06, 0.
253, 0.0, 0.09, 0.
254, 0.03, 0.09, 0.
255, 0.06, 0.09, 0.
256, 0.09, 0.09, 0.
257, 0.12, 0.09, 0.
258, 0.15, 0.09, 0.
259, 0.18, 0.09, 0.
260, 0.21, 0.09, 0.
261, 0.24, 0.09, 0.
262, 0.27, 0.09, 0.
263, 0.3, 0.09, 0.
264, 0.32999999999999996, 0.09, 0.
265, 0.36, 0.09, 0.
266, 0.39, 0.09, 0.
270, 0.51, 0.09, 0.
271, 0.54, 0.09, 0.
272, 0.57, 0.09, 0.
273, 0.6, 0.09, 0.
274, 0.63, 0.09, 0.
275, 0.6599999999999999, 0.09, 0.
276, 0.69, 0.09, 0.
277, 0.72, 0.09, 0.
278, 0.75, 0.09, 0.
279, 0.78, 0.09, 0.
280, 0.8099999999999999, 0.09, 0.
281, 0.84, 0.09, 0.
282, 0.87, 0.09, 0.
283, 0.8999999999999999, 0.09, 0.
284, 0.9299999999999999, 0.09, 0.
285, 0.96, 0.09, 0.
286, 0.99, 0.09, 0.
287, 1.02, 0.09, 0.
288, 1.05, 0.09, 0.
289, 1.08, 0.09, 0.
290, 1.1099999999999999, 0.09, 0.
291, 1.14, 0.09, 0.
292, 1.17, 0.09, 0.
293, 1.2, 0.09, 0.
294, 1.23, 0.09, 0.
295, 1.26, 0.09, 0.
296, 1.29, 0.09, 0.
297, 1.3199999999999998, 0.09, 0.
298, 1.3499999999999999, 0.09, 0.
299, 1.38, 0.09, 0.
300, 1.41, 0.09, 0.
301, 1.44, 0.09, 0.
302, 1.47, 0.09, 0.
303, 1.5, 0.09, 0.
304, 1.53, 0.09, 0.
305, 1.56, 0.09, 0.
306, 1.5899999999999999, 0.09, 0.
307, 1.6199999999999999, 0.09, 0.
308, 1.65, 0.09, 0.
309, 1.68, 0.09, 0.
310, 1.71, 0.09, 0.
311, 1.74, 0.09, 0.
312, 1.77, 0.09, 0.
313, 1.7999999999999998, 0.09, 0.
314, 1.8299999999999998, 0.09, 0.
315, 1.8599999999999999, 0.09, 0.
316, 1.89, 0.09, 0.
317, 1.92, 0.09, 0.
318, 1.95, 0.09, 0.
319, 1.98, 0.09, 0.
320, 2.01, 0.09, 0.
321, 2.04, 0.09, 0.
322, 2.07, 0.09, 0.
323, 2.1, 0.09, 0.
324, 2.13, 0.09, 0.
325, 2.16, 0.09, 0.
326, 2.19, 0.09, 0.
327, 2.2199999999999998, 0.09, 0.
328, 2.25, 0.09, 0.
329, 2.28, 0.09, 0.
330, 2.31, 0.09, 0.
331, 2.34, 0.09, 0.
332, 2.37, 0.09, 0.
333, 2.4, 0.09, 0.
334, 2.4299999999999997, 0.09, 0.
335, 2.46, 0.09, 0.
336, 2.4899999999999998, 0.09, 0.
337, 0.0, 0.12, 0.
338, 0.03, 0.12, 0.
339, 0.06, 0.12, 0.
340, 0.09, 0.12, 0.
341, 0.12, 0.12, 0.
342, 0.15, 0.12, 0.
343, 0.18, 0.12, 0.
344, 0.21, 0.12, 0.
345, 0.24, 0.12, 0.
346, 0.27, 0.12, 0.
347, 0.3, 0.12, 0.
348, 0.32999999999999996, 0.12, 0.
349, 0.36, 0.12, 0.
350, 0.39, 0.12, 0.
354, 0.51, 0.12, 0.
355, 0.54, 0.12, 0.
356, 0.57, 0.12, 0.
357, 0.6, 0.12, 0.
358, 0.63, 0.12, 0.
359, 0.6599999999999999, 0.12, 0.
360, 0.69, 0.12, 0.
361, 0.72, 0.12, 0.
362, 0.75, 0.12, 0.
363, 0.78, 0.12, 0.
364, 0.8099999999999999, 0.12, 0.
365, 0.84, 0.12, 0.
366, 0.87, 0.12, 0.
367, 0.8999999999999999, 0.12, 0.
368, 0.9299999999999999, 0.12, 0.
369, 0.96, 0.12, 0.
370, 0.99, 0.12, 0.
371, 1.02, 0.12, 0.
372, 1.05, 0.12, 0.
373, 1.08, 0.12, 0.
374, 1.1099999999999999, 0.12, 0.
375, 1.14, 0.12, 0.
376, 1.17, 0.12, 0.
377, 1.2, 0.12, 0.
378, 1.23, 0.12, 0.
379, 1.26, 0.12, 0.
380, 1.29, 0.12, 0.
381, 1.3199999999999998, 0.12, 0.
382, 1.3499999999999999, 0.12, 0.
383, 1.38, 0.12, 0.
384, 1.41, 0.12, 0.
385, 1.44, 0.12, 0.
386, 1.47, 0.12, 0.
387, 1.5, 0.12, 0.
388, 1.53, 0.12, 0.
389, 1.56, 0.12, 0.
390, 1.5899999999999999, 0.12, 0.
391, 1.6199999999999999, 0.12, 0.
392, 1.65, 0.12, 0.
393, 1.68, 0.12, 0.
394, 1.71, 0.12, 0.
395, 1.74, 0.12, 0.
396, 1.77, 0.12, 0.
397, 1.7999999999999998, 0.12, 0.
398, 1.8299999999999998, 0.12, 0.
399, 1.8599999999999999, 0.12, 0.
400, 1.89, 0.12, 0.
401, 1.92, 0.12, 0.
402, 1.95, 0.12, 0.
403, 1.98, 0.12, 0.
404, 2.01, 0.12, 0.
405, 2.04, 0.12, 0.
406, 2.07, 0.12, 0.
407, 2.1, 0.12, 0.
408, 2.13, 0.12, 0.
409, 2.16, 0.12, 0.
410, 2.19, 0.12, 0.
411, 2.2199999999999998, 0.12, 0.
412, 2.25, 0.12, 0.
413, 2.28, 0.12, 0.
414, 2.31, 0.12, 0.
415, 2.34, 0.12, 0.
416, 2.37, 0.12, 0.
417, 2.4, 0.12, 0.
418, 2.4299999999999997, 0.12, 0.
419, 2.46, 0.12, 0.
420, 2.4899999999999998, 0.12, 0.
421, 0.0, 0.15, 0.
422, 0.03, 0.15, 0.
423, 0.06, 0.15, 0.
424, 0.09, 0.15, 0.
425, 0.12, 0.15, 0.
426, 0.15, 0.15, 0.
427, 0.18, 0.15, 0.
428, 0.21, 0.15, 0.
429, 0.24, 0.15, 0.
430, 0.27, 0.15, 0.
431, 0.3, 0.15, 0.
432, 0.32999999999999996, 0.15, 0.
433, 0.36, 0.15, 0.
434, 0.39, 0.15, 0.
438, 0.51, 0.15, 0.
439, 0.54, 0.15, 0.
440, 0.57, 0.15, 0.
441, 0.6, 0.15, 0.
442, 0.63, 0.15, 0.
443, 0.6599999999999999, 0.15, 0.
444, 0.69, 0.15, 0.
445, 0.72, 0.15, 0.
446, 0.75, 0.15, 0.
447, 0.78, 0.15, 0.
448, 0.8099999999999999, 0.15, 0.
449, 0.84, 0.15, 0.
450, 0.87, 0.15, 0.
451, 0.8999999999999999, 0.15, 0.
452, 0.9299999999999999, 0.15, 0.
453, 0.96, 0.15, 0.
454, 0.99, 0.15, 0.
455, 1.02, 0.15, 0.
456, 1.05, 0.15, 0.
457, 1.08, 0.15, 0.
458, 1.1099999999999999, 0.15, 0.
459, 1.14, 0.15, 0.
460, 1.17, 0.15, 0.
461, 1.2, 0.15, 0.
462, 1.23, 0.15, 0.
463, 1.26, 0.15, 0.
464, 1.29, 0.15, 0.
465, 1.3199999999999998, 0.15, 0.
466, 1.3499999999999999, 0.15, 0.
467, 1.38, 0.15, 0.
468, 1.41, 0.15, 0.
469, 1.44, 0.15, 0.
470, 1.47, 0.15, 0.
471, 1.5, 0.15, 0.
472, 1.53, 0.15, 0.
473, 1.56, 0.15, 0.
474, 1.5899999999999999, 0.15, 0.
475, 1.6199999999999999, 0.15, 0.
476, 1.65, 0.15, 0.
477, 1.68, 0.15, 0.
478, 1.71, 0.15, 0.
479, 1.74, 0.15, 0.
480, 1.77, 0.15, 0.
481, 1.7999999999999998, 0.15, 0.
482, 1.8299999999999998, 0.15, 0.
483, 1.8599999999999999, 0.15, 0.
484, 1.89, 0.15, 0.
485, 1.92, 0.15, 0.
486, 1.95, 0.15, 0.
487, 1.98, 0.15, 0.
488, 2.01, 0.15, 0.
489, 2.04, 0.15, 0.
490, 2.07, 0.15, 0.
491, 2.1, 0.15, 0.
492, 2.13, 0.15, 0.
493, 2.16, 0.15, 0.
494, 2.19, 0.15, 0.
495, 2.2199999999999998, 0.15, 0.
496, 2.25, 0.15, 0.
497, 2.28, 0.15, 0.
498, 2.31, 0.15, 0.
499, 2.34, 0.15, 0.
500, 2.37, 0.15, 0.
501, 2.4, 0.15, 0.
502, 2.4299999999999997, 0.15, 0.
503, 2.46, 0.15, 0.
504, 2.4899999999999998, 0.15, 0.
505, 0.0, 0.18, 0.
506, 0.03, 0.18, 0.
507, 0.06, 0.18, 0.
508, 0.09, 0.18, 0.
509, 0.12, 0.18, 0.
510, 0.15, 0.18, 0.
511, 0.18, 0.18, 0.
512, 0.21, 0.18, 0.
513, 0.24, 0.18, 0.
514, 0.27, 0.18, 0.
515, 0.3, 0.18, 0.
516, 0.32999999999999996, 0.18, 0.
517, 0.36, 0.18, 0.
518, 0.39, 0.18, 0.
522, 0.51, 0.18, 0.
523, 0.54, 0.18, 0.
524, 0.57, 0.18, 0.
525, 0.6, 0.18, 0.
526, 0.63, 0.18, 0.
527, 0.6599999999999999, 0.18, 0.
528, 0.69, 0.18, 0.
529, 0.72, 0.18, 0.
530, 0.75, 0.18, 0.
531, 0.78, 0.18, 0.
532, 0.8099999999999999, 0.18, 0.
533, 0.84, 0.18, 0.
534, 0.87, 0.18, 0.
535, 0.8999999999999999, 0.18, 0.
536, 0.9299999999999999, 0.18, 0.
537, 0.96, 0.18, 0.
538, 0.99, 0.18, 0.
539, 1.02, 0.18, 0.
540, 1.05, 0.18, 0.
541, 1.08, 0.18, 0.
542, 1.1099999999999999, 0.18, 0.
543, 1.14, 0.18, 0.
544, 1.17, 0.18, 0.
545, 1.2, 0.18, 0.
546, 1.23, 0.18, 0.
547, 1.26, 0.18, 0.
548, 1.29, 0.18, 0.
549, 1.3199999999999998, 0.18, 0.
550, 1.3499999999999999, 0.18, 0.
551, 1.38, 0.18, 0.
552, 1.41, 0.18, 0.
553, 1.44, 0.18, 0.
554, 1.47, 0.18, 0.
555, 1.5, 0.18, 0.
556, 1.53, 0.18, 0.
557, 1.56, 0.18, 0.
558, 1.5899999999999999, 0.18, 0.
559, 1.6199999999999999, 0.18, 0.
560, 1.65, 0.18, 0.
561, 1.68, 0.18, 0.
562, 1.71, 0.18, 0.
563, 1.74, 0.18, 0.
564, 1.77, 0.18, 0.
565, 1.7999999999999998, 0.18, 0.
566, 1.8299999999999998, 0.18, 0.
567, 1.8599999999999999, 0.18, 0.
568, 1.89, 0.18, 0.
569, 1.92, 0.18, 0.
570, 1.95, 0.18, 0.
571, 1.98, 0.18, 0.
572, 2.01, 0.18, 0.
573, 2.04, 0.18, 0.
574, 2.07, 0.18, 0.
575, 2.1, 0.18, 0.
576, 2.13, 0.18, 0.
577, 2.16, 0.18, 0.
578, 2.19, 0.18, 0.
579, 2.2199999999999998, 0.18, 0.
580, 2.25, 0.18, 0.
581, 2.28, 0.18, 0.
582, 2.31, 0.18, 0.
583, 2.34, 0.18, 0.
584, 2.37, 0.18, 0.
585, 2.4, 0.18, 0.
586, 2.4299999999999997, 0.18, 0.
587, 2.46, 0.18, 0.
588, 2.4899999999999998, 0.18, 0.
589, 0.0, 0.21, 0.
590, 0.03, 0.21, 0.
591, 0.06, 0.21, 0.
592, 0.09, 0.21, 0.
593, 0.12, 0.21, 0.
594, 0.15, 0.21, 0.
595, 0.18, 0.21, 0.
596, 0.21, 0.21, 0.
597, 0.24, 0.21, 0.
598, 0.27, 0.21, 0.
599, 0.3, 0.21, 0.
600, 0.32999999999999996, 0.21, 0.
601, 0.36, 0.21, 0.
602, 0.39, 0.21, 0.
606, 0.51, 0.21, 0.
607, 0.54, 0.21, 0.
608, 0.57, 0.21, 0.
609, 0.6, 0.21, 0.
610, 0.63, 0.21, 0.
611, 0.6599999999999999, 0.21, 0.
612, 0.69, 0.21, 0.
613, 0.72, 0.21, 0.
614, 0.75, 0.21, 0.
615, 0.78, 0.21, 0.
616, 0.8099999999999999, 0.21, 0.
617, 0.84, 0.21, 0.
618, 0.87, 0.21, 0.
619, 0.8999999999999999, 0.21, 0.
620, 0.9299999999999999, 0.21, 0.
621, 0.96, 0.21, 0.
622, 0.99, 0.21, 0.
623, 1.02, 0.21, 0.
624, 1.05, 0.21, 0.
625, 1.08, 0.21, 0.
626, 1.1099999999999999, 0.21, 0.
627, 1.14, 0.21, 0.
628, 1.17, 0.21, 0.
629, 1.2, 0.21, 0.
630, 1.23, 0.21, 0.
631, 1.26, 0.21, 0.
632, 1.29, 0.21, 0.
633, 1.3199999999999998, 0.21, 0.
634, 1.3499999999999999, 0.21, 0.
635, 1.38, 0.21, 0.
636, 1.41, 0.21, 0.
637, 1.44, 0.21, 0.
638, 1.47, 0.21, 0.
639, 1.5, 0.21, 0.
640, 1.53, 0.21, 0.
641, 1.56, 0.21, 0.
642, 1.5899999999999999, 0.21, 0.
643, 1.6199999999999999, 0.21, 0.
644, 1.65, 0.21, 0.
645, 1.68, 0.21, 0.
646, 1.71, 0.21, 0.
647, 1.74, 0.21, 0.
648, 1.77, 0.21, 0.
649, 1.7999999999999998, 0.21, 0.
650, 1.8299999999999998, 0.21, 0.
651, 1.8599999999999999, 0.21, 0.
652, 1.89, 0.21, 0.
653, 1.92, 0.21, 0.
654, 1.95, 0.21, 0.
655, 1.98, 0.21, 0.
656, 2.01, 0.21, 0.
657, 2.04, 0.21, 0.
658, 2.07, 0.21, 0.
659, 2.1, 0.21, 0.
660, 2.13, 0.21, 0.
661, 2.16, 0.21, 0.
662, 2.19, 0.21, 0.
663, 2.2199999999999998, 0.21, 0.
664, 2.25, 0.21, 0.
665, 2.28, 0.21, 0.
666, 2.31, 0.21, 0.
667, 2.34, 0.21, 0.
668, 2.37, 0.21, 0.
669, 2.4, 0.21, 0.
670, 2.4299999999999997, 0.21, 0.
671, 2.46, 0.21, 0.
672, 2.4899999999999998, 0.21, 0.
673, 0.0, 0.24, 0.
674, 0.03, 0.24, 0.
675, 0.06, 0.24, 0.
676, 0.09, 0.24, 0.
677, 0.12, 0.24, 0.
678, 0.15, 0.24, 0.
679, 0.18, 0.24, 0.
680, 0.21, 0.24, 0.
681, 0.24, 0.24, 0.
682, 0.27, 0.24, 0.
683, 0.3, 0.24, 0.
684, 0.32999999999999996, 0.24, 0.
685, 0.36, 0.24, 0.
686, 0.39, 0.24, 0.
690, 0.51, 0.24, 0.
691, 0.54, 0.24, 0.
692, 0.57, 0.24, 0.
693, 0.6, 0.24, 0.
694, 0.63, 0.24, 0.
695, 0.6599999999999999, 0.24, 0.
696, 0.69, 0.24, 0.
697, 0.72, 0.24, 0.
698, 0.75, 0.24, 0.
699, 0.78, 0.24, 0.
700, 0.8099999999999999, 0.24, 0.
701, 0.84, 0.24, 0.
702, 0.87, 0.24, 0.
703, 0.8999999999999999, 0.24, 0.
704, 0.9299999999999999, 0.24, 0.
705, 0.96, 0.24, 0.
706, 0.99, 0.24, 0.
707, 1.02, 0.24, 0.
708, 1.05, 0.24, 0.
709, 1.08, 0.24, 0.
710, 1.1099999999999999, 0.24, 0.
711, 1.14, 0.24, 0.
712, 1.17, 0.24, 0.
713, 1.2, 0.24, 0.
714, 1.23, 0.24, 0.
715, 1.26, 0.24, 0.
716, 1.29, 0.24, 0.
717, 1.3199999999999998, 0.24, 0.
718, 1.3499999999999999, 0.24, 0.
719, 1.38, 0.24, 0.
720, 1.41, 0.24, 0.
721, 1.44, 0.24, 0.
722, 1.47, 0.24, 0.
723, 1.5, 0.24, 0.
724, 1.53, 0.24, 0.
725, 1.56, 0.24, 0.
726, 1.5899999999999999, 0.24, 0.
727, 1.6199999999999999, 0.24, 0.
728, 1.65, 0.24, 0.
729, 1.68, 0.24, 0.
730, 1.71, 0.24, 0.
731, 1.74, 0.24, 0.
732, 1.77, 0.24, 0.
733, 1.7999999999999998, 0.24, 0.
734, 1.8299999999999998, 0.24, 0.
735, 1.8599999999999999, 0.24, 0.
736, 1.89, 0.24, 0.
737, 1.92, 0.24, 0.
738, 1.95, 0.24, 0.
739, 1.98, 0.24, 0.
740, 2.01, 0.24, 0.
741, 2.04, 0.24, 0.
742, 2.07, 0.24, 0.
743, 2.1, 0.24, 0.
744, 2.13, 0.24, 0.
745, 2.16, 0.24, 0.
746, 2.19, 0.24, 0.
747, 2.2199999999999998, 0.24, 0.
748, 2.25, 0.24, 0.
749, 2.28, 0.24, 0.
750, 2.31, 0.24, 0.
751, 2.34, 0.24, 0.
752, 2.37, 0.24, 0.
753, 2.4, 0.24, 0.
754, 2.4299999999999997, 0.24, 0.
755, 2.46, 0.24, 0.
756, 2.4899999999999998, 0.24, 0.
757, 0.0, 0.27, 0.
758, 0.03, 0.27, 0.
759, 0.06, 0.27, 0.
760, 0.09, 0.27, 0.
761, 0.12, 0.27, 0.
762, 0.15, 0.27, 0.
763, 0.18, 0.27, 0.
764, 0.21, 0.27, 0.
765, 0.24, 0.27, 0.
766, 0.27, 0.27, 0.
767, 0.3, 0.27, 0.
768, 0.32999999999999996, 0.27, 0.
769, 0.36, 0.27, 0.
770, 0.39, 0.27, 0.
774, 0.51, 0.27, 0.
775, 0.54, 0.27, 0.
776, 0.57, 0.27, 0.
777, 0.6, 0.27, 0.
778, 0.63, 0.27, 0.
779, 0.6599999999999999, 0.27, 0.
780, 0.69, 0.27, 0.
781, 0.72, 0.27, 0.
782, 0.75, 0.27, 0.
783, 0.78, 0.27, 0.
784, 0.8099999999999999, 0.27, 0.
785, 0.84, 0.27, 0.
786, 0.87, 0.27, 0.
787, 0.8999999999999999, 0.27, 0.
788, 0.9299999999999999, 0.27, 0.
789, 0.96, 0.27, 0.
790, 0.99, 0.27, 0.
791, 1.02, 0.27, 0.
792, 1.05, 0.27, 0.
793, 1.08, 0.27, 0.
794, 1.1099999999999999, 0.27, 0.
795, 1.14, 0.27, 0.
796, 1.17, 0.27, 0.
797, 1.2, 0.27, 0.
798, 1.23, 0.27, 0.
799, 1.26, 0.27, 0.
800, 1.29, 0.27, 0.
801, 1.3199999999999998, 0.27, 0.
802, 1.3499999999999999, 0.27, 0.
803, 1.38, 0.27, 0.
804, 1.41, 0.27, 0.
805, 1.44, 0.27, 0.
806, 1.47, 0.27, 0.
807, 1.5, 0.27, 0.
808, 1.53, 0.27, 0.
809, 1.56, 0.27, 0.
810, 1.5899999999999999, 0.27, 0.
811, 1.6199999999999999, 0.27, 0.
812, 1.65, 0.27, 0.
813, 1.68, 0.27, 0.
814, 1.71, 0.27, 0.
815, 1.74, 0.27, 0.
816, 1.77, 0.27, 0.
817, 1.7999999999999998, 0.27, 0.
818, 1.8299999999999998, 0.27, 0.
819, 1.8599999999999999, 0.27, 0.
820, 1.89, 0.27, 0.
821, 1.92, 0.27, 0.
822, 1.95, 0.27, 0.
823, 1.98, 0.27, 0.
824, 2.01, 0.27, 0.
825, 2.04, 0.27, 0.
826, 2.07, 0.27, 0.
827, 2.1, 0.27, 0.
828, 2.13, 0.27, 0.
829, 2.16, 0.27, 0.
830, 2.19, 0.27, 0.
831, 2.2199999999999998, 0.27, 0.
832, 2.25, 0.27, 0.
833, 2.28, 0.27, 0.
834, 2.31, 0.27, 0.
835, 2.34, 0.27, 0.
836, 2.37, 0.27, 0.
837, 2.4, 0.27, 0.
838, 2.4299999999999997, 0.27, 0.
839, 2.46, 0.27, 0.
840, 2.4899999999999998, 0.27, 0.
841, 0.0, 0.3, 0.
842, 0.03, 0.3, 0.
843, 0.06, 0.3, 0.
844, 0.09, 0.3, 0.
845, 0.12, 0.3, 0.
846, 0.15, 0.3, 0.
847, 0.18, 0.3, 0.
848, 0.21, 0.3, 0.
849, 0.24, 0.3, 0.
850, 0.27, 0.3, 0.
851, 0.3, 0.3, 0.
852, 0.32999999999999996, 0.3, 0.
853, 0.36, 0.3, 0.
854, 0.39, 0.3, 0.
858, 0.51, 0.3, 0.
859, 0.54, 0.3, 0.
860, 0.57, 0.3, 0.
861, 0.6, 0.3, 0.
862, 0.63, 0.3, 0.
863, 0.6599999999999999, 0.3, 0.
864, 0.69, 0.3, 0.
865, 0.72, 0.3, 0.
866, 0.75, 0.3, 0.
867, 0.78, 0.3, 0.
868, 0.8099999999999999, 0.3, 0.
869, 0.84, 0.3, 0.
870, 0.87, 0.3, 0.
871, 0.8999999999999999, 0.3, 0.
872, 0.9299999999999999, 0.3, 0.
873, 0.96, 0.3, 0.
874, 0.99, 0.3, 0.
875, 1.02, 0.3, 0.
876, 1.05, 0.3, 0.
877, 1.08, 0.3, 0.
878, 1.1099999999999999, 0.3, 0.
879, 1.14, 0.3, 0.
880, 1.17, 0.3, 0.
881, 1.2, 0.3, 0.
882, 1.23, 0.3, 0.
883, 1.26, 0.3, 0.
884, 1.29, 0.3, 0.
885, 1.3199999999999998, 0.3, 0.
886, 1.3499999999999999, 0.3, 0.
887, 1.38, 0.3, 0.
888, 1.41, 0.3, 0.
889, 1.44, 0.3, 0.
890, 1.47, 0.3, 0.
891, 1.5, 0.3, 0.
892, 1.53, 0.3, 0.
893, 1.56, 0.3, 0.
894, 1.5899999999999999, 0.3, 0.
895, 1.6199999999999999, 0.3, 0.
896, 1.65, 0.3, 0.
897, 1.68, 0.3, 0.
898, 1.71, 0.3, 0.
899, 1.74, 0.3, 0.
900, 1.77, 0.3, 0.
901, 1.7999999999999998, 0.3, 0.
902, 1.8299999999999998, 0.3, 0.
903, 1.8599999999999999, 0.3, 0.
904, 1.89, 0.3, 0.
905, 1.92, 0.3, 0.
906, 1.95, 0.3, 0.
907, 1.98, 0.3, 0.
908, 2.01, 0.3, 0.
909, 2.04, 0.3, 0.
910, 2.07, 0.3, 0.
911, 2.1, 0.3, 0.
912, 2.13, 0.3, 0.
913, 2.16, 0.3, 0.
914, 2.19, 0.3, 0.
915, 2.2199999999999998, 0.3, 0.
916, 2.25, 0.3, 0.
917, 2.28, 0.3, 0.
918, 2.31, 0.3, 0.
919, 2.34, 0.3, 0.
920, 2.37, 0.3, 0.
921, 2.4, 0.3, 0.
922, 2.4299999999999997, 0.3, 0.
923, 2.46, 0.3, 0.
924, 2.4899999999999998, 0.3, 0.
925, 0.0, 0.32999999999999996, 0.
926, 0.03, 0.32999999999999996, 0.
927, 0.06, 0.32999999999999996, 0.
928, 0.09, 0.32999999999999996, 0.
929, 0.12, 0.32999999999999996, 0.
930, 0.15, 0.32999999999999996, 0.
931, 0.18, 0.32999999999999996, 0.
932, 0.21, 0.32999999999999996, 0.
933, 0.24, 0.32999999999999996, 0.
934, 0.27, 0.32999999999999996, 0.
935, 0.3, 0.32999999999999996, 0.
936, 0.32999999999999996, 0.32999999999999996, 0.
937, 0.36, 0.32999999999999996, 0.
938, 0.39, 0.32999999999999996, 0.
942, 0.51, 0.32999999999999996, 0.
943, 0.54, 0.32999999999999996, 0.
944, 0.57, 0.32999999999999996, 0.
945, 0.6, 0.32999999999999996, 0.
946, 0.63, 0.32999999999999996, 0.
947, 0.6599999999999999, 0.32999999999999996, 0.
948, 0.69, 0.32999999999999996, 0.
949, 0.72, 0.32999999999999996, 0.
950, 0.75, 0.32999999999999996, 0.
951, 0.78, 0.32999999999999996, 0.
952, 0.8099999999999999, 0.32999999999999996, 0.
953, 0.84, 0.32999999999999996, 0.
954, 0.87, 0.32999999999999996, 0.
955, 0.8999999999999999, 0.32999999999999996, 0.
956, 0.9299999999999999, 0.32999999999999996, 0.
957, 0.96, 0.32999999999999996, 0.
958, 0.99, 0.32999999999999996, 0.
959, 1.02, 0.32999999999999996, 0.
960, 1.05, 0.32999999999999996, 0.
961, 1.08, 0.32999999999999996, 0.
962, 1.1099999999999999, 0.32999999999999996, 0.
963, 1.14, 0.32999999999999996, 0.
964, 1.17, 0.32999999999999996, 0.
965, 1.2, 0.32999999999999996, 0.
966, 1.23, 0.32999999999999996, 0.
967, 1.26, 0.32999999999999996, 0.
968, 1.29, 0.32999999999999996, 0.
969, 1.3199999999999998, 0.32999999999999996, 0.
970, 1.3499999999999999, 0.32999999999999996, 0.
971, 1.38, 0.32999999999999996, 0.
972, 1.41, 0.32999999999999996, 0.
973, 1.44, 0.32999999999999996, 0.
974, 1.47, 0.32999999999999996, 0.
975, 1.5, 0.32999999999999996, 0.
976, 1.53, 0.32999999999999996, 0.
977, 1.56, 0.32999999999999996, 0.
978, 1.5899999999999999, 0.32999999999999996, 0.
979, 1.6199999999999999, 0.32999999999999996, 0.
980, 1.65, 0.32999999999999996, 0.
981, 1.68, 0.32999999999999996, 0.
982, 1.71, 0.32999999999999996, 0.
983, 1.74, 0.32999999999999996, 0.
984, 1.77, 0.32999999999999996, 0.
985, 1.7999999999999998, 0.32999999999999996, 0.
986, 1.8299999999999998, 0.32999999999999996, 0.
987, 1.8599999999999999, 0.32999999999999996, 0.
988, 1.89, 0.32999999999999996, 0.
989, 1.92, 0.32999999999999996, 0.
990, 1.95, 0.32999999999999996, 0.
991, 1.98, 0.32999999999999996, 0.
992, 2.01, 0.32999999999999996, 0.
993, 2.04, 0.32999999999999996, 0.
994, 2.07, 0.32999999999999996, 0.
995, 2.1, 0.32999999999999996, 0.
996, 2.13, 0.32999999999999996, 0.
997, 2.16, 0.32999999999999996, 0.
998, 2.19, 0.32999999999999996, 0.
999, 2.2199999999999998, 0.32999999999999996, 0.
1000, 2.25, 0.32999999999999996, 0.
1001, 2.28, 0.32999999999999996, 0.
1002, 2.31, 0.32999999999999996, 0.
1003, 2.34, 0.32999999999999996, 0.
1005, 2.4, 0.32999999999999996, 0.
1006, 2.4299999999999997, 0.32999999999999996, 0.
1007, 2.46, 0.32999999999999996, 0.
1008, 2.4899999999999998, 0.32999999999999996, 0.
1009, 0.0, 0.36, 0.
1010, 0.03, 0.36, 0.
1011, 0.06, 0.36, 0.
1012, 0.09, 0.36, 0.
1013, 0.12, 0.36, 0.
1015, 0.18, 0.36, 0.
1016, 0.21, 0.36, 0.
1017, 0.24, 0.36, 0.
1018, 0.27, 0.36, 0.
1019, 0.3, 0.36, 0.
1020, 0.32999999999999996, 0.36, 0.
1021, 0.36, 0.36, 0.
1022, 0.39, 0.36, 0.
1026, 0.51, 0.36, 0.
1027, 0.54, 0.36, 0.
1028, 0.57, 0.36, 0.
1029, 0.6, 0.36, 0.
1030, 0.63, 0.36, 0.
1031, 0.6599999999999999, 0.36, 0.
1032, 0.69, 0.36, 0.
1033, 0.72, 0.36, 0.
1035, 0.78, 0.36, 0.
1036, 0.8099999999999999, 0.36, 0.
1037, 0.84, 0.36, 0.
1038, 0.87, 0.36, 0.
1039, 0.8999999999999999, 0.36, 0.
1040, 0.9299999999999999, 0.36, 0.
1041, 0.96, 0.36, 0.
1042, 0.99, 0.36, 0.
1043, 1.02, 0.36, 0.
1045, 1.08, 0.36, 0.
1046, 1.1099999999999999, 0.36, 0.
1047, 1.14, 0.36, 0.
1048, 1.17, 0.36, 0.
1049, 1.2, 0.36, 0.
1050, 1.23, 0.36, 0.
1051, 1.26, 0.36, 0.
1052, 1.29, 0.36, 0.
1053, 1.3199999999999998, 0.36, 0.
1055, 1.38, 0.36, 0.
1056, 1.41, 0.36, 0.
1057, 1.44, 0.36, 0.
1058, 1.47, 0.36, 0.
1059, 1.5, 0.36, 0.
1060, 1.53, 0.36, 0.
1061, 1.56, 0.36, 0.
1062, 1.5899999999999999, 0.36, 0.
1063, 1.6199999999999999, 0.36, 0.
1065, 1.68, 0.36, 0.
1066, 1.71, 0.36, 0.
1067, 1.74, 0.36, 0.
1068, 1.77, 0.36, 0.
1069, 1.7999999999999998, 0.36, 0.
1070, 1.8299999999999998, 0.36, 0.
1071, 1.8599999999999999, 0.36, 0.
1072, 1.89, 0.36, 0.
1073, 1.92, 0.36, 0.
1075, 1.98, 0.36, 0.
1076, 2.01, 0.36, 0.
1077, 2.04, 0.36, 0.
1078, 2.07, 0.36, 0.
1079, 2.1, 0.36, 0.
1080, 2.13, 0.36, 0.
1081, 2.16, 0.36, 0.
1082, 2.19, 0.36, 0.
1083, 2.2199999999999998, 0.36, 0.
1085, 2.28, 0.36, 0.
1086, 2.31, 0.36, 0.
1087, 2.34, 0.36, 0.
1088, 2.37, 0.36, 0.
1089, 2.4, 0.36, 0.
1090, 2.4299999999999997, 0.36, 0.
1091, 2.46, 0.36, 0.
1092, 2.4899999999999998, 0.36, 0.
1093, 0.0, 0.39, 0.
1095, 0.06, 0.39, 0.
1096, 0.09, 0.39, 0.
1097, 0.12, 0.39, 0.
1098, 0.15, 0.39, 0.
1099, 0.18, 0.39, 0.
1100, 0.21, 0.39, 0.
1101, 0.24, 0.39, 0.
1102, 0.27, 0.39, 0.
1103, 0.3, 0.39, 0.
1104, 0.32999999999999996, 0.39, 0.
1105, 0.36, 0.39, 0.
1106, 0.39, 0.39, 0.
1110, 0.51, 0.39, 0.
1111, 0.54, 0.39, 0.
1112, 0.57, 0.39, 0.
1113, 0.6, 0.39, 0.
1114, 0.63, 0.39, 0.
1115, 0.6599999999999999, 0.39, 0.
1116, 0.69, 0.39, 0.
1117, 0.72, 0.39, 0.
1118, 0.75, 0.39, 0.
1119, 0.78, 0.39, 0.
1120, 0.8099999999999999, 0.39, 0.
1121, 0.84, 0.39, 0.
1122, 0.87, 0.39, 0.
1123, 0.8999999999999999, 0.39, 0.
1124, 0.9299999999999999, 0.39, 0.
1125, 0.96, 0.39, 0.
1126, 0.99, 0.39, 0.
1127, 1.02, 0.39, 0.
1128, 1.05, 0.39, 0.
1129, 1.08, 0.39, 0.
1130, 1.1099999999999999, 0.39, 0.
1131, 1.14, 0.39, 0.
1132, 1.17, 0.39, 0.
1133, 1.2, 0.39, 0.
1134, 1.23, 0.39, 0.
1135, 1.26, 0.39, 0.
1136, 1.29, 0.39, 0.
1137, 1.3199999999999998, 0.39, 0.
1138, 1.3499999999999999, 0.39, 0.
1139, 1.38, 0.39, 0.
1140, 1.41, 0.39, 0.
1141, 1.44, 0.39, 0.
1142, 1.47, 0.39, 0.
1143, 1.5, 0.39, 0.
1144, 1.53, 0.39, 0.
1145, 1.56, 0.39, 0.
1146, 1.5899999999999999, 0.39, 0.
1147, 1.6199999999999999, 0.39, 0.
1148, 1.65, 0.39, 0.
1149, 1.68, 0.39, 0.
1150, 1.71, 0.39, 0.
1151, 1.74, 0.39, 0.
1152, 1.77, 0.39, 0.
1153, 1.7999999999999998, 0.39, 0.
1154, 1.8299999999999998, 0.39, 0.
1155, 1.8599999999999999, 0.39, 0.
1156, 1.89, 0.39, 0.
1157, 1.92, 0.39, 0.
1158, 1.95, 0.39, 0.
1159, 1.98, 0.39, 0.
1160, 2.01, 0.39, 0.
1161, 2.04, 0.39, 0.
1162, 2.07, 0.39, 0.
1163, 2.1, 0.39, 0.
1164, 2.13, 0.39, 0.
1165, 2.16, 0.39, 0.
1166, 2.19, 0.39, 0.
1167, 2.2199999999999998, 0.39, 0.
1168, 2.25, 0.39, 0.
1169, 2.28, 0.39, 0.
1170, 2.31, 0.39, 0.
1171, 2.34, 0.39, 0.
1172, 2.37, 0.39, 0.
1173, 2.4, 0.39, 0.
1174, 2.4299999999999997, 0.39, 0.
1175, 2.46, 0.39, 0.
1176, 2.4899999999999998, 0.39, 0.
1429, 0.0, 0.51, 0.
1430, 0.03, 0.51, 0.
1431, 0.06, 0.51, 0.
1432, 0.09, 0.51, 0.
1433, 0.12, 0.51, 0.
1434, 0.15, 0.51, 0.
1435, 0.18, 0.51, 0.
1436, 0.21, 0.51, 0.
1437, 0.24, 0.51, 0.
1438, 0.27, 0.51, 0.
1439, 0.3, 0.51, 0.
1440, 0.32999999999999996, 0.51, 0.
1441, 0.36, 0.51, 0.
1442, 0.39, 0.51, 0.
1446, 0.51, 0.51, 0.
1447, 0.54, 0.51, 0.
1448, 0.57, 0.51, 0.
1449, 0.6, 0.51, 0.
1450, 0.63, 0.51, 0.
1451, 0.6599999999999999, 0.51, 0.
1452, 0.69, 0.51, 0.
1453, 0.72, 0.51, 0.
1454, 0.75, 0.51, 0.
1455, 0.78, 0.51, 0.
1456, 0.8099999999999999, 0.51, 0.
1457, 0.84, 0.51, 0.
1458, 0.87, 0.51, 0.
1459, 0.8999999999999999, 0.51, 0.
1460, 0.9299999999999999, 0.51, 0.
1461, 0.96, 0.51, 0.
1462, 0.99, 0.51, 0.
1463, 1.02, 0.51, 0.
1464, 1.05, 0.51, 0.
1465, 1.08, 0.51, 0.
1466, 1.1099999999999999, 0.51, 0.
1467, 1.14, 0.51, 0.
1468, 1.17, 0.51, 0.
1469, 1.2, 0.51, 0.
1470, 1.23, 0.51, 0.
1471, 1.26, 0.51, 0.
1472, 1.29, 0.51, 0.
1473, 1.3199999999999998, 0.51, 0.
1474, 1.3499999999999999, 0.51, 0.
1475, 1.38, 0.51, 0.
1476, 1.41, 0.51, 0.
1477, 1.44, 0.51, 0.
1478, 1.47, 0.51, 0.
1479, 1.5, 0.51, 0.
1480, 1.53, 0.51, 0.
1481, 1.56, 0.51, 0.
1482, 1.5899999999999999, 0.51, 0.
1483, 1.6199999999999999, 0.51, 0.
1484, 1.65, 0.51, 0.
1485, 1.68, 0.51, 0.
1486, 1.71, 0.51, 0.
1487, 1.74, 0.51, 0.
1488, 1.77, 0.51, 0.
1489, 1.7999999999999998, 0.51, 0.
1490, 1.8299999999999998, 0.51, 0.
1491, 1.8599999999999999, 0.51, 0.
1492, 1.89, 0.51, 0.
1493, 1.92, 0.51, 0.
1494, 1.95, 0.51, 0.
1495, 1.98, 0.51, 0.
1496, 2.01, 0.51, 0.
1497, 2.04, 0.51, 0.
1498, 2.07, 0.51, 0.
1499, 2.1, 0.51, 0.
1500, 2.13, 0.51, 0.
1501, 2.16, 0.51, 0.
1502, 2.19, 0.51, 0.
1503, 2.2199999999999998, 0.51, 0.
1504, 2.25, 0.51, 0.
1505, 2.28, 0.51, 0.
1506, 2.31, 0.51, 0.
1507, 2.34, 0.51, 0.
1508, 2.37, 0.51, 0.
1509, 2.4, 0.51, 0.
1510, 2.4299999999999997, 0.51, 0.
1511, 2.46, 0.51, 0.
1512, 2.4899999999999998, 0.51, 0.
1513, 0.0, 0.54, 0.
1514, 0.03, 0.54, 0.
1515, 0.06, 0.54, 0.
1516, 0.09, 0.54, 0.
1517, 0.12, 0.54, 0.
1518, 0.15, 0.54, 0.
1519, 0.18, 0.54, 0.
1520, 0.21, 0.54, 0.
1521, 0.24, 0.54, 0.
1522, 0.27, 0.54, 0.
1523, 0.3, 0.54, 0.
1524, 0.32999999999999996, 0.54, 0.
1525, 0.36, 0.54, 0.
1526, 0.39, 0.54, 0.
1530, 0.51, 0.54, 0.
1531, 0.54, 0.54, 0.
1532, 0.57, 0.54, 0.
1533, 0.6, 0.54, 0.
1534, 0.63, 0.54, 0.
1535, 0.6599999999999999, 0.54, 0.
1536, 0.69, 0.54, 0.
1537, 0.72, 0.54, 0.
1538, 0.75, 0.54, 0.
1539, 0.78, 0.54, 0.
1540, 0.8099999999999999, 0.54, 0.
1541, 0.84, 0.54, 0.
1542, 0.87, 0.54, 0.
1543, 0.8999999999999999, 0.54, 0.
1544, 0.9299999999999999, 0.54, 0.
1545, 0.96, 0.54, 0.
1546, 0.99, 0.54, 0.
1547, 1.02, 0.54, 0.
1548, 1.05, 0.54, 0.
1549, 1.08, 0.54, 0.
1550, 1.1099999999999999, 0.54, 0.
1551, 1.14, 0.54, 0.
1552, 1.17, 0.54, 0.
1553, 1.2, 0.54, 0.
1554, 1.23, 0.54, 0.
1555, 1.26, 0.54, 0.
1556, 1.29, 0.54, 0.
1557, 1.3199999999999998, 0.54, 0.
1558, 1.3499999999999999, 0.54, 0.
1559, 1.38, 0.54, 0.
1560, 1.41, 0.54, 0.
1561, 1.44, 0.54, 0.
1562, 1.47, 0.54, 0.
1563, 1.5, 0.54, 0.
1564, 1.53, 0.54, 0.
1565, 1.56, 0.54, 0.
1566, 1.5899999999999999, 0.54, 0.
1567, 1.6199999999999999, 0.54, 0.
1568, 1.65, 0.54, 0.
1569, 1.68, 0.54, 0.
1570, 1.71, 0.54, 0.
1571, 1.74, 0.54, 0.
1572, 1.77, 0.54, 0.
1573, 1.7999999999999998, 0.54, 0.
1574, 1.8299999999999998, 0.54, 0.
1575, 1.8599999999999999, 0.54, 0.
1576, 1.89, 0.54, 0.
1577, 1.92, 0.54, 0.
1578, 1.95, 0.54, 0.
1579, 1.98, 0.54, 0.
1580, 2.01, 0.54, 0.
1581, 2.04, 0.54, 0.
1582, 2.07, 0.54, 0.
1583, 2.1, 0.54, 0.
1584, 2.13, 0.54, 0.
1585, 2.16, 0.54, 0.
1586, 2.19, 0.54, 0.
1587, 2.2199999999999998, 0.54, 0.
1588, 2.25, 0.54, 0.
1589, 2.28, 0.54, 0.
1590, 2.31, 0.54, 0.
1591, 2.34, 0.54, 0.
1592, 2.37, 0.54, 0.
1593, 2.4, 0.54, 0.
1594, 2.4299999999999997, 0.54, 0.
1595, 2.46, 0.54, 0.
1596, 2.4899999999999998, 0.54, 0.
1597, 0.0, 0.57, 0.
1598, 0.03, 0.57, 0.
1599, 0.06, 0.57, 0.
1600, 0.09, 0.57, 0.
1601, 0.12, 0.57, 0.
1602, 0.15, 0.57, 0.
1603, 0.18, 0.57, 0.
1604, 0.21, 0.57, 0.
1605, 0.24, 0.57, 0.
1606, 0.27, 0.57, 0.
1607, 0.3, 0.57, 0.
1608, 0.32999999999999996, 0.57, 0.
1609, 0.36, 0.57, 0.
1610, 0.39, 0.57, 0.
1614, 0.51, 0.57, 0.
1615, 0.54, 0.57, 0.
1616, 0.57, 0.57, 0.
1617, 0.6, 0.57, 0.
1618, 0.63, 0.57, 0.
1619, 0.6599999999999999, 0.57, 0.
1620, 0.69, 0.57, 0.
1621, 0.72, 0.57, 0.
1622, 0.75, 0.57, 0.
1623, 0.78, 0.57, 0.
1624, 0.8099999999999999, 0.57, 0.
1625, 0.84, 0.57, 0.
1626, 0.87, 0.57, 0.
1627, 0.8999999999999999, 0.57, 0.
1628, 0.9299999999999999, 0.57, 0.
1629, 0.96, 0.57, 0.
1630, 0.99, 0.57, 0.
1631, 1.02, 0.57, 0.
1632, 1.05, 0.57, 0.
1633, 1.08, 0.57, 0.
1634, 1.1099999999999999, 0.57, 0.
1635, 1.14, 0.57, 0.
1636, 1.17, 0.57, 0.
1637, 1.2, 0.57, 0.
1638, 1.23, 0.57, 0.
1639, 1.26, 0.57, 0.
1640, 1.29, 0.57, 0.
1641, 1.3199999999999998, 0.57, 0.
1642, 1.3499999999999999, 0.57, 0.
1643, 1.38, 0.57, 0.
1644, 1.41, 0.57, 0.
1645, 1.44, 0.57, 0.
1646, 1.47, 0.57, 0.
1647, 1.5, 0.57, 0.
1648, 1.53, 0.57, 0.
1649, 1.56, 0.57, 0.
1650, 1.5899999999999999, 0.57, 0.
1651, 1.6199999999999999, 0.57, 0.
1652, 1.65, 0.57, 0.
1653, 1.68, 0.57, 0.
1654, 1.71, 0.57, 0.
1655, 1.74, 0.57, 0.
1656, 1.77, 0.57, 0.
1657, 1.7999999999999998, 0.57, 0.
1658, 1.8299999999999998, 0.57, 0.
1659, 1.8599999999999999, 0.57, 0.
1660, 1.89, 0.57, 0.
1661, 1.92, 0.57, 0.
1662, 1.95, 0.57, 0.
1663, 1.98, 0.57, 0.
1664, 2.01, 0.57, 0.
1665, 2.04, 0.57, 0.
1666, 2.07, 0.57, 0.
1667, 2.1, 0.57, 0.
1668, 2.13, 0.57, 0.
1669, 2.16, 0.57, 0.
1670, 2.19, 0.57, 0.
1671, 2.2199999999999998, 0.57, 0.
1672, 2.25, 0.57, 0.
1673, 2.28, 0.57, 0.
1674, 2.31, 0.57, 0.
1675, 2.34, 0.57, 0.
1676, 2.37, 0.57, 0.
1677, 2.4, 0.57, 0.
1678, 2.4299999999999997, 0.57, 0.
1679, 2.46, 0.57, 0.
1680, 2.4899999999999998, 0.57, 0.
1681, 0.0, 0.6, 0.
1682, 0.03, 0.6, 0.
1683, 0.06, 0.6, 0.
1684, 0.09, 0.6, 0.
1685, 0.12, 0.6, 0.
1686, 0.15, 0.6, 0.
1687, 0.18, 0.6, 0.
1688, 0.21, 0.6, 0.
1689, 0.24, 0.6, 0.
1690, 0.27, 0.6, 0.
1691, 0.3, 0.6, 0.
1692, 0.32999999999999996, 0.6, 0.
1693, 0.36, 0.6, 0.
1694, 0.39, 0.6, 0.
1698, 0.51, 0.6, 0.
1699, 0.54, 0.6, 0.
1700, 0.57, 0.6, 0.
1701, 0.6, 0.6, 0.
1702, 0.63, 0.6, 0.
1703, 0.6599999999999999, 0.6, 0.
1704, 0.69, 0.6, 0.
1705, 0.72, 0.6, 0.
1706, 0.75, 0.6, 0.
1707, 0.78, 0.6, 0.
1708, 0.8099999999999999, 0.6, 0.
1709, 0.84, 0.6, 0.
1710, 0.87, 0.6, 0.
1711, 0.8999999999999999, 0.6, 0.
1712, 0.9299999999999999, 0.6, 0.
1713, 0.96, 0.6, 0.
1714, 0.99, 0.6, 0.
1715, 1.02, 0.6, 0.
1716, 1.05, 0.6, 0.
1717, 1.08, 0.6, 0.
1718, 1.1099999999999999, 0.6, 0.
1719, 1.14, 0.6, 0.
1720, 1.17, 0.6, 0.
1721, 1.2, 0.6, 0.
1722, 1.23, 0.6, 0.
1723, 1.26, 0.6, 0.
1724, 1.29, 0.6, 0.
1725, 1.3199999999999998, 0.6, 0.
1726, 1.3499999999999999, 0.6, 0.
1727, 1.38, 0.6, 0.
1728, 1.41, 0.6, 0.
1729, 1.44, 0.6, 0.
1730, 1.47, 0.6, 0.
1731, 1.5, 0.6, 0.
1732, 1.53, 0.6, 0.
1733, 1.56, 0.6, 0.
1734, 1.5899999999999999, 0.6, 0.
1735, 1.6199999999999999, 0.6, 0.
1736, 1.65, 0.6, 0.
1737, 1.68, 0.6, 0.
1738, 1.71, 0.6, 0.
1739, 1.74, 0.6, 0.
1740, 1.77, 0.6, 0.
1741, 1.7999999999999998, 0.6, 0.
1742, 1.8299999999999998, 0.6, 0.
1743, 1.8599999999999999, 0.6, 0.
1744, 1.89, 0.6, 0.
1745, 1.92, 0.6, 0.
1746, 1.95, 0.6, 0.
1747, 1.98, 0.6, 0.
1748, 2.01, 0.6, 0.
1749, 2.04, 0.6, 0.
1750, 2.07, 0.6, 0.
1751, 2.1, 0.6, 0.
1752, 2.13, 0.6, 0.
1753, 2.16, 0.6, 0.
1754, 2.19, 0.6, 0.
1755, 2.2199999999999998, 0.6, 0.
1756, 2.25, 0.6, 0.
1757, 2.28, 0.6, 0.
1758, 2.31, 0.6, 0.
1759, 2.34, 0.6, 0.
1760, 2.37, 0.6, 0.
1761, 2.4, 0.6, 0.
1762, 2.4299999999999997, 0.6, 0.
1763, 2.46, 0.6, 0.
1764, 2.4899999999999998, 0.6, 0.
1765, 0.0, 0.63, 0.
1766, 0.03, 0.63, 0.
1767, 0.06, 0.63, 0.
1768, 0.09, 0.63, 0.
1769, 0.12, 0.63, 0.
1770, 0.15, 0.63, 0.
1771, 0.18, 0.63, 0.
1772, 0.21, 0.63, 0.
1773, 0.24, 0.63, 0.
1774, 0.27, 0.63, 0.
1775, 0.3, 0.63, 0.
1776, 0.32999999999999996, 0.63, 0.
1777, 0.36, 0.63, 0.
1778, 0.39, 0.63, 0.
1782, 0.51, 0.63, 0.
1783, 0.54, 0.63, 0.
1784, 0.57, 0.63, 0.
1785, 0.6, 0.63, 0.
1786, 0.63, 0.63, 0.
1787, 0.6599999999999999, 0.63, 0.
1788, 0.69, 0.63, 0.
1789, 0.72, 0.63, 0.
1790, 0.75, 0.63, 0.
1791, 0.78, 0.63, 0.
1792, 0.8099999999999999, 0.63, 0.
1793, 0.84, 0.63, 0.
1794, 0.87, 0.63, 0.
1795, 0.8999999999999999, 0.63, 0.
1796, 0.9299999999999999, 0.63, 0.
1797, 0.96, 0.63, 0.
1798, 0.99, 0.63, 0.
1799, 1.02, 0.63, 0.
1800, 1.05, 0.63, 0.
1801, 1.08, 0.63, 0.
1802, 1.1099999999999999, 0.63, 0.
1803, 1.14, 0.63, 0.
1804, 1.17, 0.63, 0.
1805, 1.2, 0.63, 0.
1806, 1.23, 0.63, 0.
1807, 1.26, 0.63, 0.
1808, 1.29, 0.63, 0.
1809, 1.3199999999999998, 0.63, 0.
1810, 1.3499999999999999, 0.63, 0.
1811, 1.38, 0.63, 0.
1812, 1.41, 0.63, 0.
1813, 1.44, 0.63, 0.
1814, 1.47, 0.63, 0.
1815, 1.5, 0.63, 0.
1816, 1.53, 0.63, 0.
1817, 1.56, 0.63, 0.
1818, 1.5899999999999999, 0.63, 0.
1819, 1.6199999999999999, 0.63, 0.
1820, 1.65, 0.63, 0.
1821, 1.68, 0.63, 0.
1822, 1.71, 0.63, 0.
1823, 1.74, 0.63, 0.
1824, 1.77, 0.63, 0.
1825, 1.7999999999999998, 0.63, 0.
1826, 1.8299999999999998, 0.63, 0.
1827, 1.8599999999999999, 0.63, 0.
1828, 1.89, 0.63, 0.
1829, 1.92, 0.63, 0.
1830, 1.95, 0.63, 0.
1831, 1.98, 0.63, 0.
1832, 2.01, 0.63, 0.
1833, 2.04, 0.63, 0.
1834, 2.07, 0.63, 0.
1835, 2.1, 0.63, 0.
1836, 2.13, 0.63, 0.
1837, 2.16, 0.63, 0.
1838, 2.19, 0.63, 0.
1839, 2.2199999999999998, 0.63, 0.
1840, 2.25, 0.63, 0.
1841, 2.28, 0.63, 0.
1842, 2.31, 0.63, 0.
1843, 2.34, 0.63, 0.
1844, 2.37, 0.63, 0.
1845, 2.4, 0.63, 0.
1846, 2.4299999999999997, 0.63, 0.
1847, 2.46, 0.63, 0.
1848, 2.4899999999999998, 0.63, 0.
1849, 0.0, 0.6599999999999999, 0.
1850, 0.03, 0.6599999999999999, 0.
1851, 0.06, 0.6599999999999999, 0.
1852, 0.09, 0.6599999999999999, 0.
1853, 0.12, 0.6599999999999999, 0.
1854, 0.15, 0.6599999999999999, 0.
1855, 0.18, 0.6599999999999999, 0.
1856, 0.21, 0.6599999999999999, 0.
1857, 0.24, 0.6599999999999999, 0.
1858, 0.27, 0.6599999999999999, 0.
1859, 0.3, 0.6599999999999999, 0.
1860, 0.32999999999999996, 0.6599999999999999, 0.
1861, 0.36, 0.6599999999999999, 0.
1862, 0.39, 0.6599999999999999, 0.
1866, 0.51, 0.6599999999999999, 0.
1867, 0.54, 0.6599999999999999, 0.
1868, 0.57, 0.6599999999999999, 0.
1869, 0.6, 0.6599999999999999, 0.
1870, 0.63, 0.6599999999999999, 0.
1871, 0.6599999999999999, 0.6599999999999999, 0.
1872, 0.69, 0.6599999999999999, 0.
1873, 0.72, 0.6599999999999999, 0.
1874, 0.75, 0.6599999999999999, 0.
1875, 0.78, 0.6599999999999999, 0.
1876, 0.8099999999999999, 0.6599999999999999, 0.
1877, 0.84, 0.6599999999999999, 0.
1878, 0.87, 0.6599999999999999, 0.
1879, 0.8999999999999999, 0.6599999999999999, 0.
1880, 0.9299999999999999, 0.6599999999999999, 0.
1881, 0.96, 0.6599999999999999, 0.
1882, 0.99, 0.6599999999999999, 0.
1883, 1.02, 0.6599999999999999, 0.
1884, 1.05, 0.6599999999999999, 0.
1885, 1.08, 0.6599999999999999, 0.
1886, 1.1099999999999999, 0.6599999999999999, 0.
1887, 1.14, 0.6599999999999999, 0.
1888, 1.17, 0.6599999999999999, 0.
1889, 1.2, 0.6599999999999999, 0.
1890, 1.23, 0.6599999999999999, 0.
1891, 1.26, 0.6599999999999999, 0.
1892, 1.29, 0.6599999999999999, 0.
1893, 1.3199999999999998, 0.6599999999999999, 0.
1894, 1.3499999999999999, 0.6599999999999999, 0.
1895, 1.38, 0.6599999999999999, 0.
1896, 1.41, 0.6599999999999999, 0.
1897, 1.44, 0.6599999999999999, 0.
1898, 1.47, 0.6599999999999999, 0.
1899, 1.5, 0.6599999999999999, 0.
1900, 1.53, 0.6599999999999999, 0.
1901, 1.56, 0.6599999999999999, 0.
1902, 1.5899999999999999, 0.6599999999999999, 0.
1903, 1.6199999999999999, 0.6599999999999999, 0.
1904, 1.65, 0.6599999999999999, 0.
1905, 1.68, 0.6599999999999999, 0.
1906, 1.71, 0.6599999999999999, 0.
1907, 1.74, 0.6599999999999999, 0.
1908, 1.77, 0.6599999999999999, 0.
1909, 1.7999999999999998, 0.6599999999999999, 0.
1910, 1.8299999999999998, 0.6599999999999999, 0.
1911, 1.8599999999999999, 0.6599999999999999, 0.
1912, 1.89, 0.6599999999999999, 0.
1913, 1.92, 0.6599999999999999, 0.
1914, 1.95, 0.6599999999999999, 0.
1915, 1.98, 0.6599999999999999, 0.
1916, 2.01, 0.6599999999999999, 0.
1917, 2.04, 0.6599999999999999, 0.
1918, 2.07, 0.6599999999999999, 0.
1919, 2.1, 0.6599999999999999, 0.
1920, 2.13, 0.6599999999999999, 0.
1921, 2.16, 0.6599999999999999, 0.
1922, 2.19, 0.6599999999999999, 0.
1923, 2.2199999999999998, 0.6599999999999999, 0.
1924, 2.25, 0.6599999999999999, 0.
1925, 2.28, 0.6599999999999999, 0.
1926, 2.31, 0.6599999999999999, 0.
1927, 2.34, 0.6599999999999999, 0.
1928, 2.37, 0.6599999999999999, 0.
1929, 2.4, 0.6599999999999999, 0.
1930, 2.4299999999999997, 0.6599999999999999, 0.
1931, 2.46, 0.6599999999999999, 0.
1932, 2.4899999999999998, 0.6599999999999999, 0.
1933, 0.0, 0.69, 0.
1934, 0.03, 0.69, 0.
1935, 0.06, 0.69, 0.
1936, 0.09, 0.69, 0.
1937, 0.12, 0.69, 0.
1938, 0.15, 0.69, 0.
1939, 0.18, 0.69, 0.
1940, 0.21, 0.69, 0.
1941, 0.24, 0.69, 0.
1942, 0.27, 0.69, 0.
1943, 0.3, 0.69, 0.
1944, 0.32999999999999996, 0.69, 0.
1945, 0.36, 0.69, 0.
1946, 0.39, 0.69, 0.
1950, 0.51, 0.69, 0.
1951, 0.54, 0.69, 0.
1952, 0.57, 0.69, 0.
1953, 0.6, 0.69, 0.
1954, 0.63, 0.69, 0.
1955, 0.6599999999999999, 0.69, 0.
1956, 0.69, 0.69, 0.
1957, 0.72, 0.69, 0.
1958, 0.75, 0.69, 0.
1959, 0.78, 0.69, 0.
1960, 0.8099999999999999, 0.69, 0.
1961, 0.84, 0.69, 0.
1962, 0.87, 0.69, 0.
1963, 0.8999999999999999, 0.69, 0.
1964, 0.9299999999999999, 0.69, 0.
1965, 0.96, 0.69, 0.
1966, 0.99, 0.69, 0.
1967, 1.02, 0.69, 0.
1968, 1.05, 0.69, 0.
1969, 1.08, 0.69, 0.
1970, 1.1099999999999999, 0.69, 0.
1971, 1.14, 0.69, 0.
1972, 1.17, 0.69, 0.
1973, 1.2, 0.69, 0.
1974, 1.23, 0.69, 0.
1975, 1.26, 0.69, 0.
1976, 1.29, 0.69, 0.
1977, 1.3199999999999998, 0.69, 0.
1978, 1.3499999999999999, 0.69, 0.
1979, 1.38, 0.69, 0.
1980, 1.41, 0.69, 0.
1981, 1.44, 0.69, 0.
1982, 1.47, 0.69, 0.
1983, 1.5, 0.69, 0.
1984, 1.53, 0.69, 0.
1985, 1.56, 0.69, 0.
1986, 1.5899999999999999, 0.69, 0.
1987, 1.6199999999999999, 0.69, 0.
1988, 1.65, 0.69, 0.
1989, 1.68, 0.69, 0.
1990, 1.71, 0.69, 0.
1991, 1.74, 0.69, 0.
1992, 1.77, 0.69, 0.
1993, 1.7999999999999998, 0.69, 0.
1994, 1.8299999999999998, 0.69, 0.
1995, 1.8599999999999999, 0.69, 0.
1996, 1.89, 0.69, 0.
1997, 1.92, 0.69, 0.
1998, 1.95, 0.69, 0.
1999, 1.98, 0.69, 0.
2000, 2.01, 0.69, 0.
2001, 2.04, 0.69, 0.
2002, 2.07, 0.69, 0.
2003, 2.1, 0.69, 0.
2005, 2.16, 0.69, 0.
2006, 2.19, 0.69, 0.
2007, 2.2199999999999998, 0.69, 0.
2008, 2.25, 0.69, 0.
2009, 2.28, 0.69, 0.
2010, 2.31, 0.69, 0.
2011, 2.34, 0.69, 0.
2012, 2.37, 0.69, 0.
2013, 2.4, 0.69, 0.
2015, 2.46, 0.69, 0.
2016, 2.4899999999999998, 0.69, 0.
2017, 0.0, 0.72, 0.
2018, 0.03, 0.72, 0.
2019, 0.06, 0.72, 0.
2020, 0.09, 0.72, 0.
2021, 0.12, 0.72, 0.
2022, 0.15, 0.72, 0.
2023, 0.18, 0.72, 0.
2025, 0.24, 0.72, 0.
2026, 0.27, 0.72, 0.
2027, 0.3, 0.72, 0.
2028, 0.32999999999999996, 0.72, 0.
2029, 0.36, 0.72, 0.
2030, 0.39, 0.72, 0.
2035, 0.54, 0.72, 0.
2036, 0.57, 0.72, 0.
2037, 0.6, 0.72, 0.
2038, 0.63, 0.72, 0.
2039, 0.6599999999999999, 0.72, 0.
2040, 0.69, 0.72, 0.
2041, 0.72, 0.72, 0.
2042, 0.75, 0.72, 0.
2043, 0.78, 0.72, 0.
2045, 0.84, 0.72, 0.
2046, 0.87, 0.72, 0.
2047, 0.8999999999999999, 0.72, 0.
2048, 0.9299999999999999, 0.72, 0.
2049, 0.96, 0.72, 0.
2050, 0.99, 0.72, 0.
2051, 1.02, 0.72, 0.
2052, 1.05, 0.72, 0.
2053, 1.08, 0.72, 0.
2055, 1.14, 0.72, 0.
2056, 1.17, 0.72, 0.
2057, 1.2, 0.72, 0.
2058, 1.23, 0.72, 0.
2059, 1.26, 0.72, 0.
2060, 1.29, 0.72, 0.
2061, 1.3199999999999998, 0.72, 0.
2062, 1.3499999999999999, 0.72, 0.
2063, 1.38, 0.72, 0.
2065, 1.44, 0.72, 0.
2066, 1.47, 0.72, 0.
2067, 1.5, 0.72, 0.
2068, 1.53, 0.72, 0.
2069, 1.56, 0.72, 0.
2070, 1.5899999999999999, 0.72, 0.
2071, 1.6199999999999999, 0.72, 0.
2072, 1.65, 0.72, 0.
2073, 1.68, 0.72, 0.
2075, 1.74, 0.72, 0.
2076, 1.77, 0.72, 0.
2077, 1.7999999999999998, 0.72, 0.
2078, 1.8299999999999998, 0.72, 0.
2079, 1.8599999999999999, 0.72, 0.
2080, 1.89, 0.72, 0.
2081, 1.92, 0.72, 0.
2082, 1.95, 0.72, 0.
2083, 1.98, 0.72, 0.
2085, 2.04, 0.72, 0.
2086, 2.07, 0.72, 0.
2087, 2.1, 0.72, 0.
2088, 2.13, 0.72, 0.
2089, 2.16, 0.72, 0.
2090, 2.19, 0.72, 0.
2091, 2.2199999999999998, 0.72, 0.
2092, 2.25, 0.72, 0.
2093, 2.28, 0.72, 0.
2095, 2.34, 0.72, 0.
2096, 2.37, 0.72, 0.
2097, 2.4, 0.72, 0.
2098, 2.4299999999999997, 0.72, 0.
2099, 2.46, 0.72, 0.
2100, 2.4899999999999998, 0.72, 0.
2101, 0.0, 0.75, 0.
2102, 0.03, 0.75, 0.
2103, 0.06, 0.75, 0.
2104, 0.09, 0.75, 0.
2105, 0.12, 0.75, 0.
2106, 0.15, 0.75, 0.
2107, 0.18, 0.75, 0.
2108, 0.21, 0.75, 0.
2109, 0.24, 0.75, 0.
2110, 0.27, 0.75, 0.
2111, 0.3, 0.75, 0.
2112, 0.32999999999999996, 0.75, 0.
2113, 0.36, 0.75, 0.
2114, 0.39, 0.75, 0.
2118, 0.51, 0.75, 0.
2119, 0.54, 0.75, 0.
2120, 0.57, 0.75, 0.
2121, 0.6, 0.75, 0.
2122, 0.63, 0.75, 0.
2123, 0.6599999999999999, 0.75, 0.
2124, 0.69, 0.75, 0.
2125, 0.72, 0.75, 0.
2126, 0.75, 0.75, 0.
2127, 0.78, 0.75, 0.
2128, 0.8099999999999999, 0.75, 0.
2129, 0.84, 0.75, 0.
2130, 0.87, 0.75, 0.
2131, 0.8999999999999999, 0.75, 0.
2132, 0.9299999999999999, 0.75, 0.
2133, 0.96, 0.75, 0.
2134, 0.99, 0.75, 0.
2135, 1.02, 0.75, 0.
2136, 1.05, 0.75, 0.
2137, 1.08, 0.75, 0.
2138, 1.1099999999999999, 0.75, 0.
2139, 1.14, 0.75, 0.
2140, 1.17, 0.75, 0.
2141, 1.2, 0.75, 0.
2142, 1.23, 0.75, 0.
2143, 1.26, 0.75, 0.
2144, 1.29, 0.75, 0.
2145, 1.3199999999999998, 0.75, 0.
2146, 1.3499999999999999, 0.75, 0.
2147, 1.38, 0.75, 0.
2148, 1.41, 0.75, 0.
2149, 1.44, 0.75, 0.
2150, 1.47, 0.75, 0.
2151, 1.5, 0.75, 0.
2152, 1.53, 0.75, 0.
2153, 1.56, 0.75, 0.
2154, 1.5899999999999999, 0.75, 0.
2155, 1.6199999999999999, 0.75, 0.
2156, 1.65, 0.75, 0.
2157, 1.68, 0.75, 0.
2158, 1.71, 0.75, 0.
2159, 1.74, 0.75, 0.
2160, 1.77, 0.75, 0.
2161, 1.7999999999999998, 0.75, 0.
2162, 1.8299999999999998, 0.75, 0.
2163, 1.8599999999999999, 0.75, 0.
2164, 1.89, 0.75, 0.
2165, 1.92, 0.75, 0.
2166, 1.95, 0.75, 0.
2167, 1.98, 0.75, 0.
2168, 2.01, 0.75, 0.
2169, 2.04, 0.75, 0.
2170, 2.07, 0.75, 0.
2171, 2.1, 0.75, 0.
2172, 2.13, 0.75, 0.
2173, 2.16, 0.75, 0.
2174, 2.19, 0.75, 0.
2175, 2.2199999999999998, 0.75, 0.
2176, 2.25, 0.75, 0.
2177, 2.28, 0.75, 0.
2178, 2.31, 0.75, 0.
2179, 2.34, 0.75, 0.
2180, 2.37, 0.75, 0.
2181, 2.4, 0.75, 0.
2182, 2.4299999999999997, 0.75, 0.
2183, 2.46, 0.75, 0.
2184, 2.4899999999999998, 0.75, 0.
2185, 0.0, 0.78, 0.
2186, 0.03, 0.78, 0.
2187, 0.06, 0.78, 0.
2188, 0.09, 0.78, 0.
2189, 0.12, 0.78, 0.
2190, 0.15, 0.78, 0.
2191, 0.18, 0.78, 0.
2192, 0.21, 0.78, 0.
2193, 0.24, 0.78, 0.
2194, 0.27, 0.78, 0.
2195, 0.3, 0.78, 0.
2196, 0.32999999999999996, 0.78, 0.
2197, 0.36, 0.78, 0.
2198, 0.39, 0.78, 0.
2202, 0.51, 0.78, 0.
2203, 0.54, 0.78, 0.
2204, 0.57, 0.78, 0.
2205, 0.6, 0.78, 0.
2206, 0.63, 0.78, 0.
2207, 0.6599999999999999, 0.78, 0.
2208, 0.69, 0.78, 0.
2209, 0.72, 0.78, 0.
2210, 0.75, 0.78, 0.
2211, 0.78, 0.78, 0.
2212, 0.8099999999999999, 0.78, 0.
2213, 0.84, 0.78, 0.
2214, 0.87, 0.78, 0.
2215, 0.8999999999999999, 0.78, 0.
2216, 0.9299999999999999, 0.78, 0.
2217, 0.96, 0.78, 0.
2218, 0.99, 0.78, 0.
2219, 1.02, 0.78, 0.
2220, 1.05, 0.78, 0.
2221, 1.08, 0.78, 0.
2222, 1.1099999999999999, 0.78, 0.
2223, 1.14, 0.78, 0.
2224, 1.17, 0.78, 0.
2225, 1.2, 0.78, 0.
2226, 1.23, 0.78, 0.
2227, 1.26, 0.78, 0.
2228, 1.29, 0.78, 0.
2229, 1.3199999999999998, 0.78, 0.
2230, 1.3499999999999999, 0.78, 0.
2231, 1.38, 0.78, 0.
2232, 1.41, 0.78, 0.
2233, 1.44, 0.78, 0.
2234, 1.47, 0.78, 0.
2235, 1.5, 0.78, 0.
2236, 1.53, 0.78, 0.
2237, 1.56, 0.78, 0.
2238, 1.5899999999999999, 0.78, 0.
2239, 1.6199999999999999, 0.78, 0.
2240, 1.65, 0.78, 0.
2241, 1.68, 0.78, 0.
2242, 1.71, 0.78, 0.
2243, 1.74, 0.78, 0.
2244, 1.77, 0.78, 0.
2245, 1.7999999999999998, 0.78, 0.
2246, 1.8299999999999998, 0.78, 0.
2247, 1.8599999999999999, 0.78, 0.
2248, 1.89, 0.78, 0.
2249, 1.92, 0.78, 0.
2250, 1.95, 0.78, 0.
2251, 1.98, 0.78, 0.
2252, 2.01, 0.78, 0.
2253, 2.04, 0.78, 0.
2254, 2.07, 0.78, 0.
2255, 2.1, 0.78, 0.
2256, 2.13, 0.78, 0.
2257, 2.16, 0.78, 0.
2258, 2.19, 0.78, 0.
2259, 2.2199999999999998, 0.78, 0.
2260, 2.25, 0.78, 0.
2261, 2.28, 0.78, 0.
2262, 2.31, 0.78, 0.
2263, 2.34, 0.78, 0.
2264, 2.37, 0.78, 0.
2265, 2.4, 0.78, 0.
2266, 2.4299999999999997, 0.78, 0.
2267, 2.46, 0.78, 0.
2268, 2.4899999999999998, 0.78, 0.
2269, 0.0, 0.8099999999999999, 0.
2270, 0.03, 0.8099999999999999, 0.
2271, 0.06, 0.8099999999999999, 0.
2272, 0.09, 0.8099999999999999, 0.
2273, 0.12, 0.8099999999999999, 0.
2274, 0.15, 0.8099999999999999, 0.
2275, 0.18, 0.8099999999999999, 0.
2276, 0.21, 0.8099999999999999, 0.
2277, 0.24, 0.8099999999999999, 0.
2278, 0.27, 0.8099999999999999, 0.
2279, 0.3, 0.8099999999999999, 0.
2280, 0.32999999999999996, 0.8099999999999999, 0.
2281, 0.36, 0.8099999999999999, 0.
2282, 0.39, 0.8099999999999999, 0.
2286, 0.51, 0.8099999999999999, 0.
2287, 0.54, 0.8099999999999999, 0.
2288, 0.57, 0.8099999999999999, 0.
2289, 0.6, 0.8099999999999999, 0.
2290, 0.63, 0.8099999999999999, 0.
2291, 0.6599999999999999, 0.8099999999999999, 0.
2292, 0.69, 0.8099999999999999, 0.
2293, 0.72, 0.8099999999999999, 0.
2294, 0.75, 0.8099999999999999, 0.
2295, 0.78, 0.8099999999999999, 0.
2296, 0.8099999999999999, 0.8099999999999999, 0.
2297, 0.84, 0.8099999999999999, 0.
2298, 0.87, 0.8099999999999999, 0.
2299, 0.8999999999999999, 0.8099999999999999, 0.
2300, 0.9299999999999999, 0.8099999999999999, 0.
2301, 0.96, 0.8099999999999999, 0.
2302, 0.99, 0.8099999999999999, 0.
2303, 1.02, 0.8099999999999999, 0.
2304, 1.05, 0.8099999999999999, 0.
2305, 1.08, 0.8099999999999999, 0.
2306, 1.1099999999999999, 0.8099999999999999, 0.
2307, 1.14, 0.8099999999999999, 0.
2308, 1.17, 0.8099999999999999, 0.
2309, 1.2, 0.8099999999999999, 0.
2310, 1.23, 0.8099999999999999, 0.
2311, 1.26, 0.8099999999999999, 0.
2312, 1.29, 0.8099999999999999, 0.
2313, 1.3199999999999998, 0.8099999999999999, 0.
2314, 1.3499999999999999, 0.8099999999999999, 0.
2315, 1.38, 0.8099999999999999, 0.
2316, 1.41, 0.8099999999999999, 0.
2317, 1.44, 0.8099999999999999, 0.
2318, 1.47, 0.8099999999999999, 0.
2319, 1.5, 0.8099999999999999, 0.
2320, 1.53, 0.8099999999999999, 0.
2321, 1.56, 0.8099999999999999, 0.
2322, 1.5899999999999999, 0.8099999999999999, 0.
2323, 1.6199999999999999, 0.8099999999999999, 0.
2324, 1.65, 0.8099999999999999, 0.
2325, 1.68, 0.8099999999999999, 0.
2326, 1.71, 0.8099999999999999, 0.
2327, 1.74, 0.8099999999999999, 0.
2328, 1.77, 0.8099999999999999, 0.
2329, 1.7999999999999998, 0.8099999999999999, 0.
2330, 1.8299999999999998, 0.8099999999999999, 0.
2331, 1.8599999999999999, 0.8099999999999999, 0.
2332, 1.89, 0.8099999999999999, 0.
2333, 1.92, 0.8099999999999999, 0.
2334, 1.95, 0.8099999999999999, 0.
2335, 1.98, 0.8099999999999999, 0.
2336, 2.01, 0.8099999999999999, 0.
2337, 2.04, 0.8099999999999999, 0.
2338, 2.07, 0.8099999999999999, 0.
2339, 2.1, 0.8099999999999999, 0.
2340, 2.13, 0.8099999999999999, 0.
2341, 2.16, 0.8099999999999999, 0.
2342, 2.19, 0.8099999999999999, 0.
2343, 2.2199999999999998, 0.8099999999999999, 0.
2344, 2.25, 0.8099999999999999, 0.
2345, 2.28, 0.8099999999999999, 0.
2346, 2.31, 0.8099999999999999, 0.
2347, 2.34, 0.8099999999999999, 0.
2348, 2.37, 0.8099999999999999, 0.
2349, 2.4, 0.8099999999999999, 0.
2350, 2.4299999999999997, 0.8099999999999999, 0.
2351, 2.46, 0.8099999999999999, 0.
2352, 2.4899999999999998, 0.8099999999999999, 0.
2353, 0.0, 0.84, 0.
2354, 0.03, 0.84, 0.
2355, 0.06, 0.84, 0.
2356, 0.09, 0.84, 0.
2357, 0.12, 0.84, 0.
2358, 0.15, 0.84, 0.
2359, 0.18, 0.84, 0.
2360, 0.21, 0.84, 0.
2361, 0.24, 0.84, 0.
2362, 0.27, 0.84, 0.
2363, 0.3, 0.84, 0.
2364, 0.32999999999999996, 0.84, 0.
2365, 0.36, 0.84, 0.
2366, 0.39, 0.84, 0.
2370, 0.51, 0.84, 0.
2371, 0.54, 0.84, 0.
2372, 0.57, 0.84, 0.
2373, 0.6, 0.84, 0.
2374, 0.63, 0.84, 0.
2375, 0.6599999999999999, 0.84, 0.
2376, 0.69, 0.84, 0.
2377, 0.72, 0.84, 0.
2378, 0.75, 0.84, 0.
2379, 0.78, 0.84, 0.
2380, 0.8099999999999999, 0.84, 0.
2381, 0.84, 0.84, 0.
2382, 0.87, 0.84, 0.
2383, 0.8999999999999999, 0.84, 0.
2384, 0.9299999999999999, 0.84, 0.
2385, 0.96, 0.84, 0.
2386, 0.99, 0.84, 0.
2387, 1.02, 0.84, 0.
2388, 1.05, 0.84, 0.
2389, 1.08, 0.84, 0.
2390, 1.1099999999999999, 0.84, 0.
2391, 1.14, 0.84, 0.
2392, 1.17, 0.84, 0.
2393, 1.2, 0.84, 0.
2394, 1.23, 0.84, 0.
2395, 1.26, 0.84, 0.
2396, 1.29, 0.84, 0.
2397, 1.3199999999999998, 0.84, 0.
2398, 1.3499999999999999, 0.84, 0.
2399, 1.38, 0.84, 0.
2400, 1.41, 0.84, 0.
2401, 1.44, 0.84, 0.
2402, 1.47, 0.84, 0.
2403, 1.5, 0.84, 0.
2404, 1.53, 0.84, 0.
2405, 1.56, 0.84, 0.
2406, 1.5899999999999999, 0.84, 0.
2407, 1.6199999999999999, 0.84, 0.
2408, 1.65, 0.84, 0.
2409, 1.68, 0.84, 0.
2410, 1.71, 0.84, 0.
2411, 1.74, 0.84, 0.
2412, 1.77, 0.84, 0.
2413, 1.7999999999999998, 0.84, 0.
2414, 1.8299999999999998, 0.84, 0.
2415, 1.8599999999999999, 0.84, 0.
2416, 1.89, 0.84, 0.
2417, 1.92, 0.84, 0.
2418, 1.95, 0.84, 0.
2419, 1.98, 0.84, 0.
2420, 2.01, 0.84, 0.
2421, 2.04, 0.84, 0.
2422, 2.07, 0.84, 0.
2423, 2.1, 0.84, 0.
2424, 2.13, 0.84, 0.
2425, 2.16, 0.84, 0.
2426, 2.19, 0.84, 0.
2427, 2.2199999999999998, 0.84, 0.
2428, 2.25, 0.84, 0.
2429, 2.28, 0.84, 0.
2430, 2.31, 0.84, 0.
2431, 2.34, 0.84, 0.
2432, 2.37, 0.84, 0.
2433, 2.4, 0.84, 0.
2434, 2.4299999999999997, 0.84, 0.
2435, 2.46, 0.84, 0.
2436, 2.4899999999999998, 0.84, 0.
2437, 0.0, 0.87, 0.
2438, 0.03, 0.87, 0.
2439, 0.06, 0.87, 0.
2440, 0.09, 0.87, 0.
2441, 0.12, 0.87, 0.
2442, 0.15, 0.87, 0.
2443, 0.18, 0.87, 0.
2444, 0.21, 0.87, 0.
2445, 0.24, 0.87, 0.
2446, 0.27, 0.87, 0.
2447, 0.3, 0.87, 0.
2448, 0.32999999999999996, 0.87, 0.
2449, 0.36, 0.87, 0.
2450, 0.39, 0.87, 0.
2454, 0.51, 0.87, 0.
2455, 0.54, 0.87, 0.
2456, 0.57, 0.87, 0.
2457, 0.6, 0.87, 0.
2458, 0.63, 0.87, 0.
2459, 0.6599999999999999, 0.87, 0.
2460, 0.69, 0.87, 0.
2461, 0.72, 0.87, 0.
2462, 0.75, 0.87, 0.
2463, 0.78, 0.87, 0.
2464, 0.8099999999999999, 0.87, 0.
2465, 0.84, 0.87, 0.
2466, 0.87, 0.87, 0.
2467, 0.8999999999999999, 0.87, 0.
2468, 0.9299999999999999, 0.87, 0.
2469, 0.96, 0.87, 0.
2470, 0.99, 0.87, 0.
2471, 1.02, 0.87, 0.
2472, 1.05, 0.87, 0.
2473, 1.08, 0.87, 0.
2474, 1.1099999999999999, 0.87, 0.
2475, 1.14, 0.87, 0.
2476, 1.17, 0.87, 0.
2477, 1.2, 0.87, 0.
2478, 1.23, 0.87, 0.
2479, 1.26, 0.87, 0.
2480, 1.29, 0.87, 0.
2481, 1.3199999999999998, 0.87, 0.
2482, 1.3499999999999999, 0.87, 0.
2483, 1.38, 0.87, 0.
2484, 1.41, 0.87, 0.
2485, 1.44, 0.87, 0.
2486, 1.47, 0.87, 0.
2487, 1.5, 0.87, 0.
2488, 1.53, 0.87, 0.
2489, 1.56, 0.87, 0.
2490, 1.5899999999999999, 0.87, 0.
2491, 1.6199999999999999, 0.87, 0.
2492, 1.65, 0.87, 0.
2493, 1.68, 0.87, 0.
2494, 1.71, 0.87, 0.
2495, 1.74, 0.87, 0.
2496, 1.77, 0.87, 0.
2497, 1.7999999999999998, 0.87, 0.
2498, 1.8299999999999998, 0.87, 0.
2499, 1.8599999999999999, 0.87, 0.
2500, 1.89, 0.87, 0.
2501, 1.92, 0.87, 0.
2502, 1.95, 0.87, 0.
2503, 1.98, 0.87, 0.
2504, 2.01, 0.87, 0.
2505, 2.04, 0.87, 0.
2506, 2.07, 0.87, 0.
2507, 2.1, 0.87, 0.
2508, 2.13, 0.87, 0.
2509, 2.16, 0.87, 0.
2510, 2.19, 0.87, 0.
2511, 2.2199999999999998, 0.87, 0.
2512, 2.25, 0.87, 0.
2513, 2.28, 0.87, 0.
2514, 2.31, 0.87, 0.
2515, 2.34, 0.87, 0.
2516, 2.37, 0.87, 0.
2517, 2.4, 0.87, 0.
2518, 2.4299999999999997, 0.87, 0.
2519, 2.46, 0.87, 0.
2520, 2.4899999999999998, 0.87, 0.
2521, 0.0, 0.8999999999999999, 0.
2522, 0.03, 0.8999999999999999, 0.
2523, 0.06, 0.8999999999999999, 0.
2524, 0.09, 0.8999999999999999, 0.
2525, 0.12, 0.8999999999999999, 0.
2526, 0.15, 0.8999999999999999, 0.
2527, 0.18, 0.8999999999999999, 0.
2528, 0.21, 0.8999999999999999, 0.
2529, 0.24, 0.8999999999999999, 0.
2530, 0.27, 0.8999999999999999, 0.
2531, 0.3, 0.8999999999999999, 0.
2532, 0.32999999999999996, 0.8999999999999999, 0.
2533, 0.36, 0.8999999999999999, 0.
2534, 0.39, 0.8999999999999999, 0.
2538, 0.51, 0.8999999999999999, 0.
2539, 0.54, 0.8999999999999999, 0.
2540, 0.57, 0.8999999999999999, 0.
2541, 0.6, 0.8999999999999999, 0.
2542, 0.63, 0.8999999999999999, 0.
2543, 0.6599999999999999, 0.8999999999999999, 0.
2544, 0.69, 0.8999999999999999, 0.
2545, 0.72, 0.8999999999999999, 0.
2546, 0.75, 0.8999999999999999, 0.
2547, 0.78, 0.8999999999999999, 0.
2548, 0.8099999999999999, 0.8999999999999999, 0.
2549, 0.84, 0.8999999999999999, 0.
2550, 0.87, 0.8999999999999999, 0.
2551, 0.8999999999999999, 0.8999999999999999, 0.
2552, 0.9299999999999999, 0.8999999999999999, 0.
2553, 0.96, 0.8999999999999999, 0.
2554, 0.99, 0.8999999999999999, 0.
2555, 1.02, 0.8999999999999999, 0.
2556, 1.05, 0.8999999999999999, 0.
2557, 1.08, 0.8999999999999999, 0.
2558, 1.1099999999999999, 0.8999999999999999, 0.
2559, 1.14, 0.8999999999999999, 0.
2560, 1.17, 0.8999999999999999, 0.
2561, 1.2, 0.8999999999999999, 0.
2562, 1.23, 0.8999999999999999, 0.
2563, 1.26, 0.8999999999999999, 0.
2564, 1.29, 0.8999999999999999, 0.
2565, 1.3199999999999998, 0.8999999999999999, 0.
2566, 1.3499999999999999, 0.8999999999999999, 0.
2567, 1.38, 0.8999999999999999, 0.
2568, 1.41, 0.8999999999999999, 0.
2569, 1.44, 0.8999999999999999, 0.
2570, 1.47, 0.8999999999999999, 0.
2571, 1.5, 0.8999999999999999, 0.
2572, 1.53, 0.8999999999999999, 0.
2573, 1.56, 0.8999999999999999, 0.
2574, 1.5899999999999999, 0.8999999999999999, 0.
2575, 1.6199999999999999, 0.8999999999999999, 0.
2576, 1.65, 0.8999999999999999, 0.
2577, 1.68, 0.8999999999999999, 0.
2578, 1.71, 0.8999999999999999, 0.
2579, 1.74, 0.8999999999999999, 0.
2580, 1.77, 0.8999999999999999, 0.
2581, 1.7999999999999998, 0.8999999999999999, 0.
2582, 1.8299999999999998, 0.8999999999999999, 0.
2583, 1.8599999999999999, 0.8999999999999999, 0.
2584, 1.89, 0.8999999999999999, 0.
2585, 1.92, 0.8999999999999999, 0.
2586, 1.95, 0.8999999999999999, 0.
2587, 1.98, 0.8999999999999999, 0.
2588, 2.01, 0.8999999999999999, 0.
2589, 2.04, 0.8999999999999999, 0.
2590, 2.07, 0.8999999999999999, 0.
2591, 2.1, 0.8999999999999999, 0.
2592, 2.13, 0.8999999999999999, 0.
2593, 2.16, 0.8999999999999999, 0.
2594, 2.19, 0.8999999999999999, 0.
2595, 2.2199999999999998, 0.8999999999999999, 0.
2596, 2.25, 0.8999999999999999, 0.
2597, 2.28, 0.8999999999999999, 0.
2598, 2.31, 0.8999999999999999, 0.
2599, 2.34, 0.8999999999999999, 0.
2600, 2.37, 0.8999999999999999, 0.
2601, 2.4, 0.8999999999999999, 0.
2602, 2.4299999999999997, 0.8999999999999999, 0.
2603, 2.46, 0.8999999999999999, 0.
2604, 2.4899999999999998, 0.8999999999999999, 0.
2605, 0.0, 0.9, 0.
2606, 0.03, 0.9, 0.
2607, 0.06, 0.9, 0.
2608, 0.09, 0.9, 0.
2609, 0.12, 0.9, 0.
2610, 0.15, 0.9, 0.
2611, 0.18, 0.9, 0.
2612, 0.21, 0.9, 0.
2613, 0.24, 0.9, 0.
2614, 0.27, 0.9, 0.
2615, 0.3, 0.9, 0.
2616, 0.32999999999999996, 0.9, 0.
2617, 0.36, 0.9, 0.
2618, 0.39, 0.9, 0.
2622, 0.51, 0.9, 0.
2623, 0.54, 0.9, 0.
2624, 0.57, 0.9, 0.
2625, 0.6, 0.9, 0.
2626, 0.63, 0.9, 0.
2627, 0.6599999999999999, 0.9, 0.
2628, 0.69, 0.9, 0.
2629, 0.72, 0.9, 0.
2630, 0.75, 0.9, 0.
2631, 0.78, 0.9, 0.
2632, 0.8099999999999999, 0.9, 0.
2633, 0.84, 0.9, 0.
2634, 0.87, 0.9, 0.
2635, 0.8999999999999999, 0.9, 0.
2636, 0.9299999999999999, 0.9, 0.
2637, 0.96, 0.9, 0.
2638, 0.99, 0.9, 0.
2639, 1.02, 0.9, 0.
2640, 1.05, 0.9, 0.
2641, 1.08, 0.9, 0.
2642, 1.1099999999999999, 0.9, 0.
2643, 1.14, 0.9, 0.
2644, 1.17, 0.9, 0.
2645, 1.2, 0.9, 0.
2646, 1.23, 0.9, 0.
2647, 1.26, 0.9, 0.
2648, 1.29, 0.9, 0.
2649, 1.3199999999999998, 0.9, 0.
2650, 1.3499999999999999, 0.9, 0.
2651, 1.38, 0.9, 0.
2652, 1.41, 0.9, 0.
2653, 1.44, 0.9, 0.
2654, 1.47, 0.9, 0.
2655, 1.5, 0.9, 0.
2656, 1.53, 0.9, 0.
2657, 1.56, 0.9, 0.
2658, 1.5899999999999999, 0.9, 0.
2659, 1.6199999999999999, 0.9, 0.
2660, 1.65, 0.9, 0.
2661, 1.68, 0.9, 0.
2662, 1.71, 0.9, 0.
2663, 1.74, 0.9, 0.
2664, 1.77, 0.9, 0.
2665, 1.7999999999999998, 0.9, 0.
2666, 1.8299999999999998, 0.9, 0.
2667, 1.8599999999999999, 0.9, 0.
2668, 1.89, 0.9, 0.
2669, 1.92, 0.9, 0.
2670, 1.95, 0.9, 0.
2671, 1.98, 0.9, 0.
2672, 2.01, 0.9, 0.
2673, 2.04, 0.9, 0.
2674, 2.07, 0.9, 0.
2675, 2.1, 0.9, 0.
2676, 2.13, 0.9, 0.
2677, 2.16, 0.9, 0.
2678, 2.19, 0.9, 0.
2679, 2.2199999999999998, 0.9, 0.
2680, 2.25, 0.9, 0.
2681, 2.28, 0.9, 0.
2682, 2.31, 0.9, 0.
2683, 2.34, 0.9, 0.
2684, 2.37, 0.9, 0.
2685, 2.4, 0.9, 0.
2686, 2.4299999999999997, 0.9, 0.
2687, 2.46, 0.9, 0.
2688, 2.4899999999999998, 0.9, 0.
2689, 0.0, 0.93, 0.
2690, 0.03, 0.93, 0.
2691, 0.06, 0.93, 0.
2692, 0.09, 0.93, 0.
2693, 0.12, 0.93, 0.
2694, 0.15, 0.93, 0.
2695, 0.18, 0.93, 0.
2696, 0.21, 0.93, 0.
2697, 0.24, 0.93, 0.
2698, 0.27, 0.93, 0.
2699, 0.3, 0.93, 0.
2700, 0.32999999999999996, 0.93, 0.
2701, 0.36, 0.93, 0.
2702, 0.39, 0.93, 0.
2706, 0.51, 0.93, 0.
2707, 0.54, 0.93, 0.
2708, 0.57, 0.93, 0.
2709, 0.6, 0.93, 0.
2710, 0.63, 0.93, 0.
2711, 0.6599999999999999, 0.93, 0.
2712, 0.69, 0.93, 0.
2713, 0.72, 0.93, 0.
2714, 0.75, 0.93, 0.
2715, 0.78, 0.93, 0.
2716, 0.8099999999999999, 0.93, 0.
2717, 0.84, 0.93, 0.
2718, 0.87, 0.93, 0.
2719, 0.8999999999999999, 0.93, 0.
2720, 0.9299999999999999, 0.93, 0.
2721, 0.96, 0.93, 0.
2722, 0.99, 0.93, 0.
2723, 1.02, 0.93, 0.
2724, 1.05, 0.93, 0.
2725, 1.08, 0.93, 0.
2726, 1.1099999999999999, 0.93, 0.
2727, 1.14, 0.93, 0.
2728, 1.17, 0.93, 0.
2729, 1.2, 0.93, 0.
2730, 1.23, 0.93, 0.
2731, 1.26, 0.93, 0.
2732, 1.29, 0.93, 0.
2733, 1.3199999999999998, 0.93, 0.
2734, 1.3499999999999999, 0.93, 0.
2735, 1.38, 0.93, 0.
2736, 1.41, 0.93, 0.
2737, 1.44, 0.93, 0.
2738, 1.47, 0.93, 0.
2739, 1.5, 0.93, 0.
2740, 1.53, 0.93, 0.
2741, 1.56, 0.93, 0.
2742, 1.5899999999999999, 0.93, 0.
2743, 1.6199999999999999, 0.93, 0.
2744, 1.65, 0.93, 0.
2745, 1.68, 0.93, 0.
2746, 1.71, 0.93, 0.
2747, 1.74, 0.93, 0.
2748, 1.77, 0.93, 0.
2749, 1.7999999999999998, 0.93, 0.
2750, 1.8299999999999998, 0.93, 0.
2751, 1.8599999999999999, 0.93, 0.
2752, 1.89, 0.93, 0.
2753, 1.92, 0.93, 0.
2754, 1.95, 0.93, 0.
2755, 1.98, 0.93, 0.
2756, 2.01, 0.93, 0.
2757, 2.04, 0.93, 0.
2758, 2.07, 0.93, 0.
2759, 2.1, 0.93, 0.
2760, 2.13, 0.93, 0.
2761, 2.16, 0.93, 0.
2762, 2.19, 0.93, 0.
2763, 2.2199999999999998, 0.93, 0.
2764, 2.25, 0.93, 0.
2765, 2.28, 0.93, 0.
2766, 2.31, 0.93, 0.
2767, 2.34, 0.93, 0.
2768, 2.37, 0.93, 0.
2769, 2.4, 0.93, 0.
2770, 2.4299999999999997, 0.93, 0.
2771, 2.46, 0.93, 0.
2772, 2.4899999999999998, 0.93, 0.
2773, 0.0, 0.96, 0.
2774, 0.03, 0.96, 0.
2775, 0.06, 0.96, 0.
2776, 0.09, 0.96, 0.
2777, 0.12, 0.96, 0.
2778, 0.15, 0.96, 0.
2779, 0.18, 0.96, 0.
2780, 0.21, 0.96, 0.
2781, 0.24, 0.96, 0.
2782, 0.27, 0.96, 0.
2783, 0.3, 0.96, 0.
2784, 0.32999999999999996, 0.96, 0.
2785, 0.36, 0.96, 0.
2786, 0.39, 0.96, 0.
2790, 0.51, 0.96, 0.
2791, 0.54, 0.96, 0.
2792, 0.57, 0.96, 0.
2793, 0.6, 0.96, 0.
2794, 0.63, 0.96, 0.
2795, 0.6599999999999999, 0.96, 0.
2796, 0.69, 0.96, 0.
2797, 0.72, 0.96, 0.
2798, 0.75, 0.96, 0.
2799, 0.78, 0.96, 0.
2800, 0.8099999999999999, 0.96, 0.
2801, 0.84, 0.96, 0.
2802, 0.87, 0.96, 0.
2803, 0.8999999999999999, 0.96, 0.
2804, 0.9299999999999999, 0.96, 0.
2805, 0.96, 0.96, 0.
2806, 0.99, 0.96, 0.
2807, 1.02, 0.96, 0.
2808, 1.05, 0.96, 0.
2809, 1.08, 0.96, 0.
2810, 1.1099999999999999, 0.96, 0.
2811, 1.14, 0.96, 0.
2812, 1.17, 0.96, 0.
2813, 1.2, 0.96, 0.
2814, 1.23, 0.96, 0.
2815, 1.26, 0.96, 0.
2816, 1.29, 0.96, 0.
2817, 1.3199999999999998, 0.96, 0.
2818, 1.3499999999999999, 0.96, 0.
2819, 1.38, 0.96, 0.
2820, 1.41, 0.96, 0.
2821, 1.44, 0.96, 0.
2822, 1.47, 0.96, 0.
2823, 1.5, 0.96, 0.
2824, 1.53, 0.96, 0.
2825, 1.56, 0.96, 0.
2826, 1.5899999999999999, 0.96, 0.
2827, 1.6199999999999999, 0.96, 0.
2828, 1.65, 0.96, 0.
2829, 1.68, 0.96, 0.
2830, 1.71, 0.96, 0.
2831, 1.74, 0.96, 0.
2832, 1.77, 0.96, 0.
2833, 1.7999999999999998, 0.96, 0.
2834, 1.8299999999999998, 0.96, 0.
2835, 1.8599999999999999, 0.96, 0.
2836, 1.89, 0.96, 0.
2837, 1.92, 0.96, 0.
2838, 1.95, 0.96, 0.
2839, 1.98, 0.96, 0.
2840, 2.01, 0.96, 0.
2841, 2.04, 0.96, 0.
2842, 2.07, 0.96, 0.
2843, 2.1, 0.96, 0.
2844, 2.13, 0.96, 0.
2845, 2.16, 0.96, 0.
2846, 2.19, 0.96, 0.
2847, 2.2199999999999998, 0.96, 0.
2848, 2.25, 0.96, 0.
2849, 2.28, 0.96, 0.
2850, 2.31, 0.96, 0.
2851, 2.34, 0.96, 0.
2852, 2.37, 0.96, 0.
2853, 2.4, 0.96, 0.
2854, 2.4299999999999997, 0.96, 0.
2855, 2.46, 0.96, 0.
2856, 2.4899999999999998, 0.96, 0.
2857, 0.0, 0.99, 0.
2858, 0.03, 0.99, 0.
2859, 0.06, 0.99, 0.
2860, 0.09, 0.99, 0.
2861, 0.12, 0.99, 0.
2862, 0.15, 0.99, 0.
2863, 0.18, 0.99, 0.
2864, 0.21, 0.99, 0.
2865, 0.24, 0.99, 0.
2866, 0.27, 0.99, 0.
2867, 0.3, 0.99, 0.
2868, 0.32999999999999996, 0.99, 0.
2869, 0.36, 0.99, 0.
2870, 0.39, 0.99, 0.
2874, 0.51, 0.99, 0.
2875, 0.54, 0.99, 0.
2876, 0.57, 0.99, 0.
2877, 0.6, 0.99, 0.
2878, 0.63, 0.99, 0.
2879, 0.6599999999999999, 0.99, 0.
2880, 0.69, 0.99, 0.
2881, 0.72, 0.99, 0.
2882, 0.75, 0.99, 0.
2883, 0.78, 0.99, 0.
2884, 0.8099999999999999, 0.99, 0.
2885, 0.84, 0.99, 0.
2886, 0.87, 0.99, 0.
2887, 0.8999999999999999, 0.99, 0.
2888, 0.9299999999999999, 0.99, 0.
2889, 0.96, 0.99, 0.
2890, 0.99, 0.99, 0.
2891, 1.02, 0.99, 0.
2892, 1.05, 0.99, 0.
2893, 1.08, 0.99, 0.
2894, 1.1099999999999999, 0.99, 0.
2895, 1.14, 0.99, 0.
2896, 1.17, 0.99, 0.
2897, 1.2, 0.99, 0.
2898, 1.23, 0.99, 0.
2899, 1.26, 0.99, 0.
2900, 1.29, 0.99, 0.
2901, 1.3199999999999998, 0.99, 0.
2902, 1.3499999999999999, 0.99, 0.
2903, 1.38, 0.99, 0.
2904, 1.41, 0.99, 0.
2905, 1.44, 0.99, 0.
2906, 1.47, 0.99, 0.
2907, 1.5, 0.99, 0.
2908, 1.53, 0.99, 0.
2909, 1.56, 0.99, 0.
2910, 1.5899999999999999, 0.99, 0.
2911, 1.6199999999999999, 0.99, 0.
2912, 1.65, 0.99, 0.
2913, 1.68, 0.99, 0.
2914, 1.71, 0.99, 0.
2915, 1.74, 0.99, 0.
2916, 1.77, 0.99, 0.
2917, 1.7999999999999998, 0.99, 0.
2918, 1.8299999999999998, 0.99, 0.
2919, 1.8599999999999999, 0.99, 0.
2920, 1.89, 0.99, 0.
2921, 1.92, 0.99, 0.
2922, 1.95, 0.99, 0.
2923, 1.98, 0.99, 0.
2924, 2.01, 0.99, 0.
2925, 2.04, 0.99, 0.
2926, 2.07, 0.99, 0.
2927, 2.1, 0.99, 0.
2928, 2.13, 0.99, 0.
2929, 2.16, 0.99, 0.
2930, 2.19, 0.99, 0.
2931, 2.2199999999999998, 0.99, 0.
2932, 2.25, 0.99, 0.
2933, 2.28, 0.99, 0.
2934, 2.31, 0.99, 0.
2935, 2.34, 0.99, 0.
2936, 2.37, 0.99, 0.
2937, 2.4, 0.99, 0.
2938, 2.4299999999999997, 0.99, 0.
2939, 2.46, 0.99, 0.
2940, 2.4899999999999998, 0.99, 0.
2941, 0.0, 1.02, 0.
2942, 0.03, 1.02, 0.
2943, 0.06, 1.02, 0.
2944, 0.09, 1.02, 0.
2945, 0.12, 1.02, 0.
2946, 0.15, 1.02, 0.
2947, 0.18, 1.02, 0.
2948, 0.21, 1.02, 0.
2949, 0.24, 1.02, 0.
2950, 0.27, 1.02, 0.
2951, 0.3, 1.02, 0.
2952, 0.32999999999999996, 1.02, 0.
2953, 0.36, 1.02, 0.
2954, 0.39, 1.02, 0.
2958, 0.51, 1.02, 0.
2959, 0.54, 1.02, 0.
2960, 0.57, 1.02, 0.
2961, 0.6, 1.02, 0.
2962, 0.63, 1.02, 0.
2963, 0.6599999999999999, 1.02, 0.
2964, 0.69, 1.02, 0.
2965, 0.72, 1.02, 0.
2966, 0.75, 1.02, 0.
2967, 0.78, 1.02, 0.
2968, 0.8099999999999999, 1.02, 0.
2969, 0.84, 1.02, 0.
2970, 0.87, 1.02, 0.
2971, 0.8999999999999999, 1.02, 0.
2972, 0.9299999999999999, 1.02, 0.
2973, 0.96, 1.02, 0.
2974, 0.99, 1.02, 0.
2975, 1.02, 1.02, 0.
2976, 1.05, 1.02, 0.
2977, 1.08, 1.02, 0.
2978, 1.1099999999999999, 1.02, 0.
2979, 1.14, 1.02, 0.
2980, 1.17, 1.02, 0.
2981, 1.2, 1.02, 0.
2982, 1.23, 1.02, 0.
2983, 1.26, 1.02, 0.
2984, 1.29, 1.02, 0.
2985, 1.3199999999999998, 1.02, 0.
2986, 1.3499999999999999, 1.02, 0.
2987, 1.38, 1.02, 0.
2988, 1.41, 1.02, 0.
2989, 1.44, 1.02, 0.
2990, 1.47, 1.02, 0.
2991, 1.5, 1.02, 0.
2992, 1.53, 1.02, 0.
2993, 1.56, 1.02, 0.
2994, 1.5899999999999999, 1.02, 0.
2995, 1.6199999999999999, 1.02, 0.
2996, 1.65, 1.02, 0.
2997, 1.68, 1.02, 0.
2998, 1.71, 1.02, 0.
2999, 1.74, 1.02, 0.
3000, 1.77, 1.02, 0.
3001, 1.7999999999999998, 1.02, 0.
3002, 1.8299999999999998, 1.02, 0.
3003, 1.8599999999999999, 1.02, 0.
3005, 1.92, 1.02, 0.
3006, 1.95, 1.02, 0.
3007, 1.98, 1.02, 0.
3008, 2.01, 1.02, 0.
3009, 2.04, 1.02, 0.
3010, 2.07, 1.02, 0.
3011, 2.1, 1.02, 0.
3012, 2.13, 1.02, 0.
3013, 2.16, 1.02, 0.
3015, 2.2199999999999998, 1.02, 0.
3016, 2.25, 1.02, 0.
3017, 2.28, 1.02, 0.
3018, 2.31, 1.02, 0.
3019, 2.34, 1.02, 0.
3020, 2.37, 1.02, 0.
3021, 2.4, 1.02, 0.
3022, 2.4299999999999997, 1.02, 0.
3023, 2.46, 1.02, 0.
3025, 2.5, 0.9, 0.
3026, 2.5, 1.0, 0.
3027, 2.5, 1.1, 0.
3028, 2.5, 1.2000000000000002, 0.
3029, 2.5, 1.3, 0.
3030, 2.5, 1.4, 0.
3031, 2.5, 1.5, 0.
3032, 2.4, 0.9122784560902905, 0.
3033, 2.4, 1.0122784560902904, 0.
3035, 2.4, 1.2122784560902904, 0.
3036, 2.4, 1.3122784560902905, 0.
3037, 2.4, 1.4122784560902906, 0.
3038, 2.4, 1.5122784560902907, 0.
3039, 2.3, 0.924556912180581, 0.
3041, 2.3, 1.124556912180581, 0.
3042, 2.3, 1.224556912180581, 0.
3043, 2.3, 1.3245569121805811, 0.
3045, 2.3, 1.524556912180581, 0.
3046, 2.2, 0.9368353682708714, 0.
3047, 2.2, 1.0368353682708715, 0.
3048, 2.2, 1.1368353682708714, 0.
3049, 2.2, 1.2368353682708715, 0.
3050, 2.2, 1.3368353682708713, 0.
3051, 2.2, 1.4368353682708714, 0.
3052, 2.2, 1.5368353682708715, 0.
3053, 2.1, 0.9491138243611619, 0.
3055, 2.1, 1.1491138243611618, 0.
3056, 2.1, 1.249113824361162, 0.
3057, 2.1, 1.349113824361162, 0.
3058, 2.1, 1.4491138243611619, 0.
3059, 2.1, 1.549113824361162, 0.
3060, 2.0, 0.9613922804514523, 0.
3061, 2.0, 1.0613922804514524, 0.
3062, 2.0, 1.1613922804514523, 0.
3063, 2.0, 1.2613922804514524, 0.
3065, 2.0, 1.4613922804514523, 0.
3066, 2.0, 1.5613922804514524, 0.
3067, 1.9, 0.9736707365417427, 0.
3068, 1.9, 1.0736707365417428, 0.
3069, 1.9, 1.1736707365417427, 0.
3070, 1.9, 1.2736707365417428, 0.
3071, 1.9, 1.3736707365417429, 0.
3072, 1.9, 1.4736707365417427, 0.
3073, 1.9, 1.5736707365417428, 0.
*ELEMENT, TYPE=CPE4R, ELSET=WORK
1, 1, 2, 86, 85
2, 2, 3, 87, 86
3, 3, 4, 88, 87
4, 4, 5, 89, 88
5, 5, 6, 90, 89
6, 6, 7, 91, 90
7, 7, 8, 92, 91
8, 8, 9, 93, 92
9, 9, 10, 94, 93
10, 10, 11, 95, 94
11, 11, 12, 96, 95
12, 12, 13, 97, 96
13, 13, 14, 98, 97
14, 14, 15, 99, 98
15, 15, 16, 100, 99
16, 16, 17, 101, 100
17, 17, 18, 102, 101
18, 18, 19, 103, 102
19, 19, 20, 104, 103
20, 20, 21, 105, 104
21, 21, 22, 106, 105
22, 22, 23, 107, 106
23, 23, 24, 108, 107
24, 24, 25, 109, 108
25, 25, 26, 110, 109
26, 26, 27, 111, 110
27, 27, 28, 112, 111
28, 28, 29, 113, 112
29, 29, 30, 114, 113
30, 30, 31, 115, 114
31, 31, 32, 116, 115
32, 32, 33, 117, 116
33, 33, 34, 118, 117
34, 34, 35, 119, 118
35, 35, 36, 120, 119
36, 36, 37, 121, 120
37, 37, 38, 122, 121
38, 38, 39, 123, 122
39, 39, 40, 124, 123
40, 40, 41, 125, 124
41, 41, 42, 126, 125
42, 42, 43, 127, 126
43, 43, 44, 128, 127
44, 44, 45, 129, 128
45, 45, 46, 130, 129
46, 46, 47, 131, 130
47, 47, 48, 132, 131
48, 48, 49, 133, 132
49, 49, 50, 134, 133
50, 50, 51, 135, 134
51, 51, 52, 136, 135
52, 52, 53, 137, 136
53, 53, 54, 138, 137
54, 54, 55, 139, 138
55, 55, 56, 140, 139
56, 56, 57, 141, 140
57, 57, 58, 142, 141
58, 58, 59, 143, 142
59, 59, 60, 144, 143
60, 60, 61, 145, 144
61, 61, 62, 146, 145
62, 62, 63, 147, 146
63, 63, 64, 148, 147
64, 64, 65, 149, 148
65, 65, 66, 150, 149
66, 66, 67, 151, 150
67, 67, 68, 152, 151
68, 68, 69, 153, 152
69, 69, 70, 154, 153
70, 70, 71, 155, 154
71, 71, 72, 156, 155
72, 72, 73, 157, 156
73, 73, 74, 158, 157
74, 74, 75, 159, 158
75, 75, 76, 160, 159
76, 76, 77, 161, 160
77, 77, 78, 162, 161
78, 78, 79, 163, 162
79, 79, 80, 164, 163
80, 80, 81, 165, 164
81, 81, 82, 166, 165
82, 82, 83, 167, 166
83, 83, 84, 168, 167
84, 85, 86, 170, 169
85, 86, 87, 171, 170
86, 87, 88, 172, 171
87, 88, 89, 173, 172
88, 89, 90, 174, 173
89, 90, 91, 175, 174
90, 91, 92, 176, 175
91, 92, 93, 177, 176
92, 93, 94, 178, 177
93, 94, 95, 179, 178
94, 95, 96, 180, 179
95, 96, 97, 181, 180
96, 97, 98, 182, 181
97, 98, 99, 183, 182
98, 99, 100, 184, 183
99, 100, 101, 185, 184
100, 101, 102, 186, 185
101, 102, 103, 187, 186
102, 103, 104, 188, 187
103, 104, 105, 189, 188
104, 105, 106, 190, 189
105, 106, 107, 191, 190
106, 107, 108, 192, 191
107, 108, 109, 193, 192
108, 109, 110, 194, 193
109, 110, 111, 195, 194
110, 111, 112, 196, 195
111, 112, 113, 197, 196
112, 113, 114, 198, 197
113, 114, 115, 199, 198
114, 115, 116, 200, 199
115, 116, 117, 201, 200
116, 117, 118, 202, 201
117, 118, 119, 203, 202
118, 119, 120, 204, 203
119, 120, 121, 205, 204
120, 121, 122, 206, 205
121, 122, 123, 207, 206
122, 123, 124, 208, 207
123, 124, 125, 209, 208
124, 125, 126, 210, 209
125, 126, 127, 211, 210
126, 127, 128, 212, 211
127, 128, 129, 213, 212
128, 129, 130, 214, 213
129, 130, 131, 215, 214
130, 131, 132, 216, 215
131, 132, 133, 217, 216
132, 133, 134, 218, 217
133, 134, 135, 219, 218
134, 135, 136, 220, 219
135, 136, 137, 221, 220
136, 137, 138, 222, 221
137, 138, 139, 223, 222
138, 139, 140, 224, 223
139, 140, 141, 225, 224
140, 141, 142, 226, 225
141, 142, 143, 227, 226
142, 143, 144, 228, 227
143, 144, 145, 229, 228
144, 145, 146, 230, 229
145, 146, 147, 231, 230
146, 147, 148, 232, 231
147, 148, 149, 233, 232
148, 149, 150, 234, 233
149, 150, 151, 235, 234
150, 151, 152, 236, 235
151, 152, 153, 237, 236
152, 153, 154, 238, 237
153, 154, 155, 239, 238
154, 155, 156, 240, 239
155, 156, 157, 241, 240
156, 157, 158, 242, 241
157, 158, 159, 243, 242
158, 159, 160, 244, 243
159, 160, 161, 245, 244
160, 161, 162, 246, 245
161, 162, 163, 247, 246
162, 163, 164, 248, 247
163, 164, 165, 249, 248
164, 165, 166, 250, 249
165, 166, 167, 251, 250
166, 167, 168, 252, 251
167, 169, 170, 254, 253
168, 170, 171, 255, 254
169, 171, 172, 256, 255
170, 172, 173, 257, 256
171, 173, 174, 258, 257
172, 174, 175, 259, 258
173, 175, 176, 260, 259
174, 176, 177, 261, 260
175, 177, 178, 262, 261
176, 178, 179, 263, 262
177, 179, 180, 264, 263
178, 180, 181, 265, 264
179, 181, 182, 266, 265
180, 182, 183, 267, 266
181, 183, 184, 268, 267
182, 184, 185, 269, 268
183, 185, 186, 270, 269
184, 186, 187, 271, 270
185, 187, 188, 272, 271
186, 188, 189, 273, 272
187, 189, 190, 274, 273
188, 190, 191, 275, 274
189, 191, 192, 276, 275
190, 192, 193, 277, 276
191, 193, 194, 278, 277
192, 194, 195, 279, 278
193, 195, 196, 280, 279
194, 196, 197, 281, 280
195, 197, 198, 282, 281
196, 198, 199, 283, 282
197, 199, 200, 284, 283
198, 200, 201, 285, 284
199, 201, 202, 286, 285
200, 202, 203, 287, 286
201, 203, 204, 288, 287
202, 204, 205, 289, 288
203, 205, 206, 290, 289
204, 206, 207, 291, 290
205, 207, 208, 292, 291
206, 208, 209, 293, 292
207, 209, 210, 294, 293
208, 210, 211, 295, 294
209, 211, 212, 296, 295
210, 212, 213, 297, 296
211, 213, 214, 298, 297
212, 214, 215, 299, 298
213, 215, 216, 300, 299
214, 216, 217, 301, 300
215, 217, 218, 302, 301
216, 218, 219, 303, 302
217, 219, 220, 304, 303
218, 220, 221, 305, 304
219, 221, 222, 306, 305
220, 222, 223, 307, 306
221, 223, 224, 308, 307
222, 224, 225, 309, 308
223, 225, 226, 310, 309
224, 226, 227, 311, 310
225, 227, 228, 312, 311
226, 228, 229, 313, 312
227, 229, 230, 314, 313
228, 230, 231, 315, 314
229, 231, 232, 316, 315
230, 232, 233, 317, 316
231, 233, 234, 318, 317
232, 234, 235, 319, 318
233, 235, 236, 320, 319
234, 236, 237, 321, 320
235, 237, 238, 322, 321
236, 238, 239, 323, 322
237, 239, 240, 324, 323
238, 240, 241, 325, 324
239, 241, 242, 326, 325
240, 242, 243, 327, 326
241, 243, 244, 328, 327
242, 244, 245, 329, 328
243, 245, 246, 330, 329
244, 246, 247, 331, 330
245, 247, 248, 332, 331
246, 248, 249, 333, 332
247, 249, 250, 334, 333
248, 250, 251, 335, 334
249, 251, 252, 336, 335
250, 253, 254, 338, 337
251, 254, 255, 339, 338
252, 255, 256, 340, 339
253, 256, 257, 341, 340
254, 257, 258, 342, 341
255, 258, 259, 343, 342
256, 259, 260, 344, 343
257, 260, 261, 345, 344
258, 261, 262, 346, 345
259, 262, 263, 347, 346
260, 263, 264, 348, 347
261, 264, 265, 349, 348
262, 265, 266, 350, 349
263, 266, 267, 351, 350
264, 267, 268, 352, 351
265, 268, 269, 353, 352
266, 269, 270, 354, 353
267, 270, 271, 355, 354
268, 271, 272, 356, 355
269, 272, 273, 357, 356
270, 273, 274, 358, 357
271, 274, 275, 359, 358
272, 275, 276, 360, 359
273, 276, 277, 361, 360
274, 277, 278, 362, 361
275, 278, 279, 363, 362
276, 279, 280, 364, 363
277, 280, 281, 365, 364
278, 281, 282, 366, 365
279, 282, 283, 367, 366
280, 283, 284, 368, 367
281, 284, 285, 369, 368
282, 285, 286, 370, 369
283, 286, 287, 371, 370
284, 287, 288, 372, 371
285, 288, 289, 373, 372
286, 289, 290, 374, 373
287, 290, 291, 375, 374
288, 291, 292, 376, 375
289, 292, 293, 377, 376
290, 293, 294, 378, 377
291, 294, 295, 379, 378
292, 295, 296, 380, 379
293, 296, 297, 381, 380
294, 297, 298, 382, 381
295, 298, 299, 383, 382
296, 299, 300, 384, 383
297, 300, 301, 385, 384
298, 301, 302, 386, 385
299, 302, 303, 387, 386
300, 303, 304, 388, 387
301, 304, 305, 389, 388
302, 305, 306, 390, 389
303, 306, 307, 391, 390
304, 307, 308, 392, 391
305, 308, 309, 393, 392
306, 309, 310, 394, 393
307, 310, 311, 395, 394
308, 311, 312, 396, 395
309, 312, 313, 397, 396
310, 313, 314, 398, 397
311, 314, 315, 399, 398
312, 315, 316, 400, 399
313, 316, 317, 401, 400
314, 317, 318, 402, 401
315, 318, 319, 403, 402
316, 319, 320, 404, 403
317, 320, 321, 405, 404
318, 321, 322, 406, 405
319, 322, 323, 407, 406
320, 323, 324, 408, 407
321, 324, 325, 409, 408
322, 325, 326, 410, 409
323, 326, 327, 411, 410
324, 327, 328, 412, 411
325, 328, 329, 413, 412
326, 329, 330, 414, 413
327, 330, 331, 415, 414
328, 331, 332, 416, 415
329, 332, 333, 417, 416
330, 333, 334, 418, 417
331, 334, 335, 419, 418
332, 335, 336, 420, 419
333, 337, 338, 422, 421
334, 338, 339, 423, 422
335, 339, 340, 424, 423
336, 340, 341, 425, 424
337, 341, 342, 426, 425
338, 342, 343, 427, 426
339, 343, 344, 428, 427
340, 344, 345, 429, 428
341, 345, 346, 430, 429
342, 346, 347, 431, 430
343, 347, 348, 432, 431
344, 348, 349, 433, 432
345, 349, 350, 434, 433
346, 350, 351, 435, 434
347, 351, 352, 436, 435
348, 352, 353, 437, 436
349, 353, 354, 438, 437
350, 354, 355, 439, 438
351, 355, 356, 440, 439
352, 356, 357, 441, 440
353, 357, 358, 442, 441
354, 358, 359, 443, 442
355, 359, 360, 444, 443
356, 360, 361, 445, 444
357, 361, 362, 446, 445
358, 362, 363, 447, 446
359, 363, 364, 448, 447
360, 364, 365, 449, 448
361, 365, 366, 450, 449
362, 366, 367, 451, 450
363, 367, 368, 452, 451
364, 368, 369, 453, 452
365, 369, 370, 454, 453
366, 370, 371, 455, 454
367, 371, 372, 456, 455
368, 372, 373, 457, 456
369, 373, 374, 458, 457
370, 374, 375, 459, 458
371, 375, 376, 460, 459
372, 376, 377, 461, 460
373, 377, 378, 462, 461
374, 378, 379, 463, 462
375, 379, 380, 464, 463
376, 380, 381, 465, 464
377, 381, 382, 466, 465
378, 382, 383, 467, 466
379, 383, 384, 468, 467
380, 384, 385, 469, 468
381, 385, 386, 470, 469
382, 386, 387, 471, 470
383, 387, 388, 472, 471
384, 388, 389, 473, 472
385, 389, 390, 474, 473
386, 390, 391, 475, 474
387, 391, 392, 476, 475
388, 392, 393, 477, 476
389, 393, 394, 478, 477
390, 394, 395, 479, 478
391, 395, 396, 480, 479
392, 396, 397, 481, 480
393, 397, 398, 482, 481
394, 398, 399, 483, 482
395, 399, 400, 484, 483
396, 400, 401, 485, 484
397, 401, 402, 486, 485
398, 402, 403, 487, 486
399, 403, 404, 488, 487
400, 404, 405, 489, 488
401, 405, 406, 490, 489
402, 406, 407, 491, 490
403, 407, 408, 492, 491
404, 408, 409, 493, 492
405, 409, 410, 494, 493
406, 410, 411, 495, 494
407, 411, 412, 496, 495
408, 412, 413, 497, 496
409, 413, 414, 498, 497
410, 414, 415, 499, 498
411, 415, 416, 500, 499
412, 416, 417, 501, 500
413, 417, 418, 502, 501
414, 418, 419, 503, 502
415, 419, 420, 504, 503
416, 421, 422, 506, 505
417, 422, 423, 507, 506
418, 423, 424, 508, 507
419, 424, 425, 509, 508
420, 425, 426, 510, 509
421, 426, 427, 511, 510
422, 427, 428, 512, 511
423, 428, 429, 513, 512
424, 429, 430, 514, 513
425, 430, 431, 515, 514
426, 431, 432, 516, 515
427, 432, 433, 517, 516
428, 433, 434, 518, 517
429, 434, 435, 519, 518
430, 435, 436, 520, 519
431, 436, 437, 521, 520
432, 437, 438, 522, 521
433, 438, 439, 523, 522
434, 439, 440, 524, 523
435, 440, 441, 525, 524
436, 441, 442, 526, 525
437, 442, 443, 527, 526
438, 443, 444, 528, 527
439, 444, 445, 529, 528
440, 445, 446, 530, 529
441, 446, 447, 531, 530
442, 447, 448, 532, 531
443, 448, 449, 533, 532
444, 449, 450, 534, 533
445, 450, 451, 535, 534
446, 451, 452, 536, 535
447, 452, 453, 537, 536
448, 453, 454, 538, 537
449, 454, 455, 539, 538
450, 455, 456, 540, 539
451, 456, 457, 541, 540
452, 457, 458, 542, 541
453, 458, 459, 543, 542
454, 459, 460, 544, 543
455, 460, 461, 545, 544
456, 461, 462, 546, 545
457, 462, 463, 547, 546
458, 463, 464, 548, 547
459, 464, 465, 549, 548
460, 465, 466, 550, 549
461, 466, 467, 551, 550
462, 467, 468, 552, 551
463, 468, 469, 553, 552
464, 469, 470, 554, 553
465, 470, 471, 555, 554
466, 471, 472, 556, 555
467, 472, 473, 557, 556
468, 473, 474, 558, 557
469, 474, 475, 559, 558
470, 475, 476, 560, 559
471, 476, 477, 561, 560
472, 477, 478, 562, 561
473, 478, 479, 563, 562
474, 479, 480, 564, 563
475, 480, 481, 565, 564
476, 481, 482, 566, 565
477, 482, 483, 567, 566
478, 483, 484, 568, 567
479, 484, 485, 569, 568
480, 485, 486, 570, 569
481, 486, 487, 571, 570
482, 487, 488, 572, 571
483, 488, 489, 573, 572
484, 489, 490, 574, 573
485, 490, 491, 575, 574
486, 491, 492, 576, 575
487, 492, 493, 577, 576
488, 493, 494, 578, 577
489, 494, 495, 579, 578
490, 495, 496, 580, 579
491, 496, 497, 581, 580
492, 497, 498, 582, 581
493, 498, 499, 583, 582
494, 499, 500, 584, 583
495, 500, 501, 585, 584
496, 501, 502, 586, 585
497, 502, 503, 587, 586
498, 503, 504, 588, 587
499, 505, 506, 590, 589
500, 506, 507, 591, 590
501, 507, 508, 592, 591
502, 508, 509, 593, 592
503, 509, 510, 594, 593
504, 510, 511, 595, 594
505, 511, 512, 596, 595
506, 512, 513, 597, 596
507, 513, 514, 598, 597
508, 514, 515, 599, 598
509, 515, 516, 600, 599
510, 516, 517, 601, 600
511, 517, 518, 602, 601
512, 518, 519, 603, 602
513, 519, 520, 604, 603
514, 520, 521, 605, 604
515, 521, 522, 606, 605
516, 522, 523, 607, 606
517, 523, 524, 608, 607
518, 524, 525, 609, 608
519, 525, 526, 610, 609
520, 526, 527, 611, 610
521, 527, 528, 612, 611
522, 528, 529, 613, 612
523, 529, 530, 614, 613
524, 530, 531, 615, 614
525, 531, 532, 616, 615
526, 532, 533, 617, 616
527, 533, 534, 618, 617
528, 534, 535, 619, 618
529, 535, 536, 620, 619
530, 536, 537, 621, 620
531, 537, 538, 622, 621
532, 538, 539, 623, 622
533, 539, 540, 624, 623
534, 540, 541, 625, 624
535, 541, 542, 626, 625
536, 542, 543, 627, 626
537, 543, 544, 628, 627
538, 544, 545, 629, 628
539, 545, 546, 630, 629
540, 546, 547, 631, 630
541, 547, 548, 632, 631
542, 548, 549, 633, 632
543, 549, 550, 634, 633
544, 550, 551, 635, 634
545, 551, 552, 636, 635
546, 552, 553, 637, 636
547, 553, 554, 638, 637
548, 554, 555, 639, 638
549, 555, 556, 640, 639
550, 556, 557, 641, 640
551, 557, 558, 642, 641
552, 558, 559, 643, 642
553, 559, 560, 644, 643
554, 560, 561, 645, 644
555, 561, 562, 646, 645
556, 562, 563, 647, 646
557, 563, 564, 648, 647
558, 564, 565, 649, 648
559, 565, 566, 650, 649
560, 566, 567, 651, 650
561, 567, 568, 652, 651
562, 568, 569, 653, 652
563, 569, 570, 654, 653
564, 570, 571, 655, 654
565, 571, 572, 656, 655
566, 572, 573, 657, 656
567, 573, 574, 658, 657
568, 574, 575, 659, 658
569, 575, 576, 660, 659
570, 576, 577, 661, 660
571, 577, 578, 662, 661
572, 578, 579, 663, 662
573, 579, 580, 664, 663
574, 580, 581, 665, 664
575, 581, 582, 666, 665
576, 582, 583, 667, 666
577, 583, 584, 668, 667
578, 584, 585, 669, 668
579, 585, 586, 670, 669
580, 586, 587, 671, 670
581, 587, 588, 672, 671
582, 589, 590, 674, 673
583, 590, 591, 675, 674
584, 591, 592, 676, 675
585, 592, 593, 677, 676
586, 593, 594, 678, 677
587, 594, 595, 679, 678
588, 595, 596, 680, 679
589, 596, 597, 681, 680
590, 597, 598, 682, 681
591, 598, 599, 683, 682
592, 599, 600, 684, 683
593, 600, 601, 685, 684
594, 601, 602, 686, 685
595, 602, 603, 687, 686
596, 603, 604, 688, 687
597, 604, 605, 689, 688
598, 605, 606, 690, 689
599, 606, 607, 691, 690
600, 607, 608, 692, 691
601, 608, 609, 693, 692
602, 609, 610, 694, 693
603, 610, 611, 695, 694
604, 611, 612, 696, 695
605, 612, 613, 697, 696
606, 613, 614, 698, 697
607, 614, 615, 699, 698
608, 615, 616, 700, 699
609, 616, 617, 701, 700
610, 617, 618, 702, 701
611, 618, 619, 703, 702
612, 619, 620, 704, 703
613, 620, 621, 705, 704
614, 621, 622, 706, 705
615, 622, 623, 707, 706
616, 623, 624, 708, 707
617, 624, 625, 709, 708
618, 625, 626, 710, 709
619, 626, 627, 711, 710
620, 627, 628, 712, 711
621, 628, 629, 713, 712
622, 629, 630, 714, 713
623, 630, 631, 715, 714
624, 631, 632, 716, 715
625, 632, 633, 717, 716
626, 633, 634, 718, 717
627, 634, 635, 719, 718
628, 635, 636, 720, 719
629, 636, 637, 721, 720
630, 637, 638, 722, 721
631, 638, 639, 723, 722
632, 639, 640, 724, 723
633, 640, 641, 725, 724
634, 641, 642, 726, 725
635, 642, 643, 727, 726
636, 643, 644, 728, 727
637, 644, 645, 729, 728
638, 645, 646, 730, 729
639, 646, 647, 731, 730
640, 647, 648, 732, 731
641, 648, 649, 733, 732
642, 649, 650, 734, 733
643, 650, 651, 735, 734
644, 651, 652, 736, 735
645, 652, 653, 737, 736
646, 653, 654, 738, 737
647, 654, 655, 739, 738
648, 655, 656, 740, 739
649, 656, 657, 741, 740
650, 657, 658, 742, 741
651, 658, 659, 743, 742
652, 659, 660, 744, 743
653, 660, 661, 745, 744
654, 661, 662, 746, 745
655, 662, 663, 747, 746
656, 663, 664, 748, 747
657, 664, 665, 749, 748
658, 665, 666, 750, 749
659, 666, 667, 751, 750
660, 667, 668, 752, 751
661, 668, 669, 753, 752
662, 669, 670, 754, 753
663, 670, 671, 755, 754
664, 671, 672, 756, 755
665, 673, 674, 758, 757
666, 674, 675, 759, 758
667, 675, 676, 760, 759
668, 676, 677, 761, 760
669, 677, 678, 762, 761
670, 678, 679, 763, 762
671, 679, 680, 764, 763
672, 680, 681, 765, 764
673, 681, 682, 766, 765
674, 682, 683, 767, 766
675, 683, 684, 768, 767
676, 684, 685, 769, 768
677, 685, 686, 770, 769
678, 686, 687, 771, 770
679, 687, 688, 772, 771
680, 688, 689, 773, 772
681, 689, 690, 774, 773
682, 690, 691, 775, 774
683, 691, 692, 776, 775
684, 692, 693, 777, 776
685, 693, 694, 778, 777
686, 694, 695, 779, 778
687, 695, 696, 780, 779
688, 696, 697, 781, 780
689, 697, 698, 782, 781
690, 698, 699, 783, 782
691, 699, 700, 784, 783
692, 700, 701, 785, 784
693, 701, 702, 786, 785
694, 702, 703, 787, 786
695, 703, 704, 788, 787
696, 704, 705, 789, 788
697, 705, 706, 790, 789
698, 706, 707, 791, 790
699, 707, 708, 792, 791
700, 708, 709, 793, 792
701, 709, 710, 794, 793
702, 710, 711, 795, 794
703, 711, 712, 796, 795
704, 712, 713, 797, 796
705, 713, 714, 798, 797
706, 714, 715, 799, 798
707, 715, 716, 800, 799
708, 716, 717, 801, 800
709, 717, 718, 802, 801
710, 718, 719, 803, 802
711, 719, 720, 804, 803
712, 720, 721, 805, 804
713, 721, 722, 806, 805
714, 722, 723, 807, 806
715, 723, 724, 808, 807
716, 724, 725, 809, 808
717, 725, 726, 810, 809
718, 726, 727, 811, 810
719, 727, 728, 812, 811
720, 728, 729, 813, 812
721, 729, 730, 814, 813
722, 730, 731, 815, 814
723, 731, 732, 816, 815
724, 732, 733, 817, 816
725, 733, 734, 818, 817
726, 734, 735, 819, 818
727, 735, 736, 820, 819
728, 736, 737, 821, 820
729, 737, 738, 822, 821
730, 738, 739, 823, 822
731, 739, 740, 824, 823
732, 740, 741, 825, 824
733, 741, 742, 826, 825
734, 742, 743, 827, 826
735, 743, 744, 828, 827
736, 744, 745, 829, 828
737, 745, 746, 830, 829
738, 746, 747, 831, 830
739, 747, 748, 832, 831
740, 748, 749, 833, 832
741, 749, 750, 834, 833
742, 750, 751, 835, 834
743, 751, 752, 836, 835
744, 752, 753, 837, 836
745, 753, 754, 838, 837
746, 754, 755, 839, 838
747, 755, 756, 840, 839
748, 757, 758, 842, 841
749, 758, 759, 843, 842
750, 759, 760, 844, 843
751, 760, 761, 845, 844
752, 761, 762, 846, 845
753, 762, 763, 847, 846
754, 763, 764, 848, 847
755, 764, 765, 849, 848
756, 765, 766, 850, 849
757, 766, 767, 851, 850
758, 767, 768, 852, 851
759, 768, 769, 853, 852
760, 769, 770, 854, 853
761, 770, 771, 855, 854
762, 771, 772, 856, 855
763, 772, 773, 857, 856
764, 773, 774, 858, 857
765, 774, 775, 859, 858
766, 775, 776, 860, 859
767, 776, 777, 861, 860
768, 777, 778, 862, 861
769, 778, 779, 863, 862
770, 779, 780, 864, 863
771, 780, 781, 865, 864
772, 781, 782, 866, 865
773, 782, 783, 867, 866
774, 783, 784, 868, 867
775, 784, 785, 869, 868
776, 785, 786, 870, 869
777, 786, 787, 871, 870
778, 787, 788, 872, 871
779, 788, 789, 873, 872
780, 789, 790, 874, 873
781, 790, 791, 875, 874
782, 791, 792, 876, 875
783, 792, 793, 877, 876
784, 793, 794, 878, 877
785, 794, 795, 879, 878
786, 795, 796, 880, 879
787, 796, 797, 881, 880
788, 797, 798, 882, 881
789, 798, 799, 883, 882
790, 799, 800, 884, 883
791, 800, 801, 885, 884
792, 801, 802, 886, 885
793, 802, 803, 887, 886
794, 803, 804, 888, 887
795, 804, 805, 889, 888
796, 805, 806, 890, 889
797, 806, 807, 891, 890
798, 807, 808, 892, 891
799, 808, 809, 893, 892
800, 809, 810, 894, 893
801, 810, 811, 895, 894
802, 811, 812, 896, 895
803, 812, 813, 897, 896
804, 813, 814, 898, 897
805, 814, 815, 899, 898
806, 815, 816, 900, 899
807, 816, 817, 901, 900
808, 817, 818, 902, 901
809, 818, 819, 903, 902
810, 819, 820, 904, 903
811, 820, 821, 905, 904
812, 821, 822, 906, 905
813, 822, 823, 907, 906
814, 823, 824, 908, 907
815, 824, 825, 909, 908
816, 825, 826, 910, 909
817, 826, 827, 911, 910
818, 827, 828, 912, 911
819, 828, 829, 913, 912
820, 829, 830, 914, 913
821, 830, 831, 915, 914
822, 831, 832, 916, 915
823, 832, 833, 917, 916
824, 833, 834, 918, 917
825, 834, 835, 919, 918
826, 835, 836, 920, 919
827, 836, 837, 921, 920
828, 837, 838, 922, 921
829, 838, 839, 923, 922
830, 839, 840, 924, 923
831, 841, 842, 926, 925
832, 842, 843, 927, 926
833, 843, 844, 928, 927
834, 844, 845, 929, 928
835, 845, 846, 930, 929
836, 846, 847, 931, 930
837, 847, 848, 932, 931
838, 848, 849, 933, 932
839, 849, 850, 934, 933
840, 850, 851, 935, 934
841, 851, 852, 936, 935
842, 852, 853, 937, 936
843, 853, 854, 938, 937
844, 854, 855, 939, 938
845, 855, 856, 940, 939
846, 856, 857, 941, 940
847, 857, 858, 942, 941
848, 858, 859, 943, 942
849, 859, 860, 944, 943
850, 860, 861, 945, 944
851, 861, 862, 946, 945
852, 862, 863, 947, 946
853, 863, 864, 948, 947
854, 864, 865, 949, 948
855, 865, 866, 950, 949
856, 866, 867, 951, 950
857, 867, 868, 952, 951
858, 868, 869, 953, 952
859, 869, 870, 954, 953
860, 870, 871, 955, 954
861, 871, 872, 956, 955
862, 872, 873, 957, 956
863, 873, 874, 958, 957
864, 874, 875, 959, 958
865, 875, 876, 960, 959
866, 876, 877, 961, 960
867, 877, 878, 962, 961
868, 878, 879, 963, 962
869, 879, 880, 964, 963
870, 880, 881, 965, 964
871, 881, 882, 966, 965
872, 882, 883, 967, 966
873, 883, 884, 968, 967
874, 884, 885, 969, 968
875, 885, 886, 970, 969
876, 886, 887, 971, 970
877, 887, 888, 972, 971
878, 888, 889, 973, 972
879, 889, 890, 974, 973
880, 890, 891, 975, 974
881, 891, 892, 976, 975
882, 892, 893, 977, 976
883, 893, 894, 978, 977
884, 894, 895, 979, 978
885, 895, 896, 980, 979
886, 896, 897, 981, 980
887, 897, 898, 982, 981
888, 898, 899, 983, 982
889, 899, 900, 984, 983
890, 900, 901, 985, 984
891, 901, 902, 986, 985
892, 902, 903, 987, 986
893, 903, 904, 988, 987
894, 904, 905, 989, 988
895, 905, 906, 990, 989
896, 906, 907, 991, 990
897, 907, 908, 992, 991
898, 908, 909, 993, 992
899, 909, 910, 994, 993
900, 910, 911, 995, 994
901, 911, 912, 996, 995
902, 912, 913, 997, 996
903, 913, 914, 998, 997
904, 914, 915, 999, 998
905, 915, 916, 1000, 999
906, 916, 917, 1001, 1000
907, 917, 918, 1002, 1001
908, 918, 919, 1003, 1002
911, 921, 922, 1006, 1005
912, 922, 923, 1007, 1006
913, 923, 924, 1008, 1007
914, 925, 926, 1010, 1009
915, 926, 927, 1011, 1010
916, 927, 928, 1012, 1011
917, 928, 929, 1013, 1012
920, 931, 932, 1016, 1015
921, 932, 933, 1017, 1016
922, 933, 934, 1018, 1017
923, 934, 935, 1019, 1018
924, 935, 936, 1020, 1019
925, 936, 937, 1021, 1020
926, 937, 938, 1022, 1021
927, 938, 939, 1023, 1022
930, 941, 942, 1026, 1025
931, 942, 943, 1027, 1026
932, 943, 944, 1028, 1027
933, 944, 945, 1029, 1028
934, 945, 946, 1030, 1029
935, 946, 947, 1031, 1030
936, 947, 948, 1032, 1031
937, 948, 949, 1033, 1032
940, 951, 952, 1036, 1035
941, 952, 953, 1037, 1036
942, 953, 954, 1038, 1037
943, 954, 955, 1039, 1038
944, 955, 956, 1040, 1039
945, 956, 957, 1041, 1040
946, 957, 958, 1042, 1041
947, 958, 959, 1043, 1042
950, 961, 962, 1046, 1045
951, 962, 963, 1047, 1046
952, 963, 964, 1048, 1047
953, 964, 965, 1049, 1048
954, 965, 966, 1050, 1049
955, 966, 967, 1051, 1050
956, 967, 968, 1052, 1051
957, 968, 969, 1053, 1052
960, 971, 972, 1056, 1055
961, 972, 973, 1057, 1056
962, 973, 974, 1058, 1057
963, 974, 975, 1059, 1058
964, 975, 976, 1060, 1059
965, 976, 977, 1061, 1060
966, 977, 978, 1062, 1061
967, 978, 979, 1063, 1062
970, 981, 982, 1066, 1065
971, 982, 983, 1067, 1066
972, 983, 984, 1068, 1067
973, 984, 985, 1069, 1068
974, 985, 986, 1070, 1069
975, 986, 987, 1071, 1070
976, 987, 988, 1072, 1071
977, 988, 989, 1073, 1072
980, 991, 992, 1076, 1075
981, 992, 993, 1077, 1076
982, 993, 994, 1078, 1077
983, 994, 995, 1079, 1078
984, 995, 996, 1080, 1079
985, 996, 997, 1081, 1080
986, 997, 998, 1082, 1081
987, 998, 999, 1083, 1082
990, 1001, 1002, 1086, 1085
991, 1002, 1003, 1087, 1086
994, 1005, 1006, 1090, 1089
995, 1006, 1007, 1091, 1090
996, 1007, 1008, 1092, 1091
999, 1011, 1012, 1096, 1095
1000, 1012, 1013, 1097, 1096
1003, 1015, 1016, 1100, 1099
1005, 1017, 1018, 1102, 1101
1006, 1018, 1019, 1103, 1102
1007, 1019, 1020, 1104, 1103
1008, 1020, 1021, 1105, 1104
1009, 1021, 1022, 1106, 1105
1010, 1022, 1023, 1107, 1106
1013, 1025, 1026, 1110, 1109
1015, 1027, 1028, 1112, 1111
1016, 1028, 1029, 1113, 1112
1017, 1029, 1030, 1114, 1113
1018, 1030, 1031, 1115, 1114
1019, 1031, 1032, 1116, 1115
1020, 1032, 1033, 1117, 1116
1023, 1035, 1036, 1120, 1119
1025, 1037, 1038, 1122, 1121
1026, 1038, 1039, 1123, 1122
1027, 1039, 1040, 1124, 1123
1028, 1040, 1041, 1125, 1124
1029, 1041, 1042, 1126, 1125
1030, 1042, 1043, 1127, 1126
1033, 1045, 1046, 1130, 1129
1035, 1047, 1048, 1132, 1131
1036, 1048, 1049, 1133, 1132
1037, 1049, 1050, 1134, 1133
1038, 1050, 1051, 1135, 1134
1039, 1051, 1052, 1136, 1135
1040, 1052, 1053, 1137, 1136
1043, 1055, 1056, 1140, 1139
1045, 1057, 1058, 1142, 1141
1046, 1058, 1059, 1143, 1142
1047, 1059, 1060, 1144, 1143
1048, 1060, 1061, 1145, 1144
1049, 1061, 1062, 1146, 1145
1050, 1062, 1063, 1147, 1146
1053, 1065, 1066, 1150, 1149
1055, 1067, 1068, 1152, 1151
1056, 1068, 1069, 1153, 1152
1057, 1069, 1070, 1154, 1153
1058, 1070, 1071, 1155, 1154
1059, 1071, 1072, 1156, 1155
1060, 1072, 1073, 1157, 1156
1063, 1075, 1076, 1160, 1159
1065, 1077, 1078, 1162, 1161
1066, 1078, 1079, 1163, 1162
1067, 1079, 1080, 1164, 1163
1068, 1080, 1081, 1165, 1164
1069, 1081, 1082, 1166, 1165
1070, 1082, 1083, 1167, 1166
1073, 1085, 1086, 1170, 1169
1075, 1087, 1088, 1172, 1171
1076, 1088, 1089, 1173, 1172
1077, 1089, 1090, 1174, 1173
1078, 1090, 1091, 1175, 1174
1079, 1091, 1092, 1176, 1175
1082, 1095, 1096, 1180, 1179
1083, 1096, 1097, 1181, 1180
1085, 1098, 1099, 1183, 1182
1086, 1099, 1100, 1184, 1183
1087, 1100, 1101, 1185, 1184
1088, 1101, 1102, 1186, 1185
1089, 1102, 1103, 1187, 1186
1090, 1103, 1104, 1188, 1187
1091, 1104, 1105, 1189, 1188
1092, 1105, 1106, 1190, 1189
1093, 1106, 1107, 1191, 1190
1095, 1108, 1109, 1193, 1192
1096, 1109, 1110, 1194, 1193
1097, 1110, 1111, 1195, 1194
1098, 1111, 1112, 1196, 1195
1099, 1112, 1113, 1197, 1196
1100, 1113, 1114, 1198, 1197
1101, 1114, 1115, 1199, 1198
1102, 1115, 1116, 1200, 1199
1103, 1116, 1117, 1201, 1200
1104, 1117, 1118, 1202, 1201
1105, 1118, 1119, 1203, 1202
1106, 1119, 1120, 1204, 1203
1107, 1120, 1121, 1205, 1204
1108, 1121, 1122, 1206, 1205
1109, 1122, 1123, 1207, 1206
1110, 1123, 1124, 1208, 1207
1111, 1124, 1125, 1209, 1208
1112, 1125, 1126, 1210, 1209
1113, 1126, 1127, 1211, 1210
1114, 1127, 1128, 1212, 1211
1115, 1128, 1129, 1213, 1212
1116, 1129, 1130, 1214, 1213
1117, 1130, 1131, 1215, 1214
1118, 1131, 1132, 1216, 1215
1119, 1132, 1133, 1217, 1216
1120, 1133, 1134, 1218, 1217
1121, 1134, 1135, 1219, 1218
1122, 1135, 1136, 1220, 1219
1123, 1136, 1137, 1221, 1220
1124, 1137, 1138, 1222, 1221
1125, 1138, 1139, 1223, 1222
1126, 1139, 1140, 1224, 1223
1127, 1140, 1141, 1225, 1224
1128, 1141, 1142, 1226, 1225
1129, 1142, 1143, 1227, 1226
1130, 1143, 1144, 1228, 1227
1131, 1144, 1145, 1229, 1228
1132, 1145, 1146, 1230, 1229
1133, 1146, 1147, 1231, 1230
1134, 1147, 1148, 1232, 1231
1135, 1148, 1149, 1233, 1232
1136, 1149, 1150, 1234, 1233
1137, 1150, 1151, 1235, 1234
1138, 1151, 1152, 1236, 1235
1139, 1152, 1153, 1237, 1236
1140, 1153, 1154, 1238, 1237
1141, 1154, 1155, 1239, 1238
1142, 1155, 1156, 1240, 1239
1143, 1156, 1157, 1241, 1240
1144, 1157, 1158, 1242, 1241
1145, 1158, 1159, 1243, 1242
1146, 1159, 1160, 1244, 1243
1147, 1160, 1161, 1245, 1244
1148, 1161, 1162, 1246, 1245
1149, 1162, 1163, 1247, 1246
1150, 1163, 1164, 1248, 1247
1151, 1164, 1165, 1249, 1248
1152, 1165, 1166, 1250, 1249
1153, 1166, 1167, 1251, 1250
1154, 1167, 1168, 1252, 1251
1155, 1168, 1169, 1253, 1252
1156, 1169, 1170, 1254, 1253
1157, 1170, 1171, 1255, 1254
1158, 1171, 1172, 1256, 1255
1159, 1172, 1173, 1257, 1256
1160, 1173, 1174, 1258, 1257
1161, 1174, 1175, 1259, 1258
1162, 1175, 1176, 1260, 1259
1163, 1177, 1178, 1262, 1261
1164, 1178, 1179, 1263, 1262
1165, 1179, 1180, 1264, 1263
1166, 1180, 1181, 1265, 1264
1167, 1181, 1182, 1266, 1265
1168, 1182, 1183, 1267, 1266
1169, 1183, 1184, 1268, 1267
1170, 1184, 1185, 1269, 1268
1171, 1185, 1186, 1270, 1269
1172, 1186, 1187, 1271, 1270
1173, 1187, 1188, 1272, 1271
1174, 1188, 1189, 1273, 1272
1175, 1189, 1190, 1274, 1273
1176, 1190, 1191, 1275, 1274
1177, 1191, 1192, 1276, 1275
1178, 1192, 1193, 1277, 1276
1179, 1193, 1194, 1278, 1277
1180, 1194, 1195, 1279, 1278
1181, 1195, 1196, 1280, 1279
1182, 1196, 1197, 1281, 1280
1183, 1197, 1198, 1282, 1281
1184, 1198, 1199, 1283, 1282
1185, 1199, 1200, 1284, 1283
1186, 1200, 1201, 1285, 1284
1187, 1201, 1202, 1286, 1285
1188, 1202, 1203, 1287, 1286
1189, 1203, 1204, 1288, 1287
1190, 1204, 1205, 1289, 1288
1191, 1205, 1206, 1290, 1289
1192, 1206, 1207, 1291, 1290
1193, 1207, 1208, 1292, 1291
1194, 1208, 1209, 1293, 1292
1195, 1209, 1210, 1294, 1293
1196, 1210, 1211, 1295, 1294
1197, 1211, 1212, 1296, 1295
1198, 1212, 1213, 1297, 1296
1199, 1213, 1214, 1298, 1297
1200, 1214, 1215, 1299, 1298
1201, 1215, 1216, 1300, 1299
1202, 1216, 1217, 1301, 1300
1203, 1217, 1218, 1302, 1301
1204, 1218, 1219, 1303, 1302
1205, 1219, 1220, 1304, 1303
1206, 1220, 1221, 1305, 1304
1207, 1221, 1222, 1306, 1305
1208, 1222, 1223, 1307, 1306
1209, 1223, 1224, 1308, 1307
1210, 1224, 1225, 1309, 1308
1211, 1225, 1226, 1310, 1309
1212, 1226, 1227, 1311, 1310
1213, 1227, 1228, 1312, 1311
1214, 1228, 1229, 1313, 1312
1215, 1229, 1230, 1314, 1313
1216, 1230, 1231, 1315, 1314
1217, 1231, 1232, 1316, 1315
1218, 1232, 1233, 1317, 1316
1219, 1233, 1234, 1318, 1317
1220, 1234, 1235, 1319, 1318
1221, 1235, 1236, 1320, 1319
1222, 1236, 1237, 1321, 1320
1223, 1237, 1238, 1322, 1321
1224, 1238, 1239, 1323, 1322
1225, 1239, 1240, 1324, 1323
1226, 1240, 1241, 1325, 1324
1227, 1241, 1242, 1326, 1325
1228, 1242, 1243, 1327, 1326
1229, 1243, 1244, 1328, 1327
1230, 1244, 1245, 1329, 1328
1231, 1245, 1246, 1330, 1329
1232, 1246, 1247, 1331, 1330
1233, 1247, 1248, 1332, 1331
1234, 1248, 1249, 1333, 1332
1235, 1249, 1250, 1334, 1333
1236, 1250, 1251, 1335, 1334
1237, 1251, 1252, 1336, 1335
1238, 1252, 1253, 1337, 1336
1239, 1253, 1254, 1338, 1337
1240, 1254, 1255, 1339, 1338
1241, 1255, 1256, 1340, 1339
1242, 1256, 1257, 1341, 1340
1243, 1257, 1258, 1342, 1341
1244, 1258, 1259, 1343, 1342
1245, 1259, 1260, 1344, 1343
1246, 1261, 1262, 1346, 1345
1247, 1262, 1263, 1347, 1346
1248, 1263, 1264, 1348, 1347
1249, 1264, 1265, 1349, 1348
1250, 1265, 1266, 1350, 1349
1251, 1266, 1267, 1351, 1350
1252, 1267, 1268, 1352, 1351
1253, 1268, 1269, 1353, 1352
1254, 1269, 1270, 1354, 1353
1255, 1270, 1271, 1355, 1354
1256, 1271, 1272, 1356, 1355
1257, 1272, 1273, 1357, 1356
1258, 1273, 1274, 1358, 1357
1259, 1274, 1275, 1359, 1358
1260, 1275, 1276, 1360, 1359
1261, 1276, 1277, 1361, 1360
1262, 1277, 1278, 1362, 1361
1263, 1278, 1279, 1363, 1362
1264, 1279, 1280, 1364, 1363
1265, 1280, 1281, 1365, 1364
1266, 1281, 1282, 1366, 1365
1267, 1282, 1283, 1367, 1366
1268, 1283, 1284, 1368, 1367
1269, 1284, 1285, 1369, 1368
1270, 1285, 1286, 1370, 1369
1271, 1286, 1287, 1371, 1370
1272, 1287, 1288, 1372, 1371
1273, 1288, 1289, 1373, 1372
1274, 1289, 1290, 1374, 1373
1275, 1290, 1291, 1375, 1374
1276, 1291, 1292, 1376, 1375
1277, 1292, 1293, 1377, 1376
1278, 1293, 1294, 1378, 1377
1279, 1294, 1295, 1379, 1378
1280, 1295, 1296, 1380, 1379
1281, 1296, 1297, 1381, 1380
1282, 1297, 1298, 1382, 1381
1283, 1298, 1299, 1383, 1382
1284, 1299, 1300, 1384, 1383
1285, 1300, 1301, 1385, 1384
1286, 1301, 1302, 1386, 1385
1287, 1302, 1303, 1387, 1386
1288, 1303, 1304, 1388, 1387
1289, 1304, 1305, 1389, 1388
1290, 1305, 1306, 1390, 1389
1291, 1306, 1307, 1391, 1390
1292, 1307, 1308, 1392, 1391
1293, 1308, 1309, 1393, 1392
1294, 1309, 1310, 1394, 1393
1295, 1310, 1311, 1395, 1394
1296, 1311, 1312, 1396, 1395
1297, 1312, 1313, 1397, 1396
1298, 1313, 1314, 1398, 1397
1299, 1314, 1315, 1399, 1398
1300, 1315, 1316, 1400, 1399
1301, 1316, 1317, 1401, 1400
1302, 1317, 1318, 1402, 1401
1303, 1318, 1319, 1403, 1402
1304, 1319, 1320, 1404, 1403
1305, 1320, 1321, 1405, 1404
1306, 1321, 1322, 1406, 1405
1307, 1322, 1323, 1407, 1406
1308, 1323, 1324, 1408, 1407
1309, 1324, 1325, 1409, 1408
1310, 1325, 1326, 1410, 1409
1311, 1326, 1327, 1411, 1410
1312, 1327, 1328, 1412, 1411
1313, 1328, 1329, 1413, 1412
1314, 1329, 1330, 1414, 1413
1315, 1330, 1331, 1415, 1414
1316, 1331, 1332, 1416, 1415
1317, 1332, 1333, 1417, 1416
1318, 1333, 1334, 1418, 1417
1319, 1334, 1335, 1419, 1418
1320, 1335, 1336, 1420, 1419
1321, 1336, 1337, 1421, 1420
1322, 1337, 1338, 1422, 1421
1323, 1338, 1339, 1423, 1422
1324, 1339, 1340, 1424, 1423
1325, 1340, 1341, 1425, 1424
1326, 1341, 1342, 1426, 1425
1327, 1342, 1343, 1427, 1426
1328, 1343, 1344, 1428, 1427
1329, 1345, 1346, 1430, 1429
1330, 1346, 1347, 1431, 1430
1331, 1347, 1348, 1432, 1431
1332, 1348, 1349, 1433, 1432
1333, 1349, 1350, 1434, 1433
1334, 1350, 1351, 1435, 1434
1335, 1351, 1352, 1436, 1435
1336, 1352, 1353, 1437, 1436
1337, 1353, 1354, 1438, 1437
1338, 1354, 1355, 1439, 1438
1339, 1355, 1356, 1440, 1439
1340, 1356, 1357, 1441, 1440
1341, 1357, 1358, 1442, 1441
1342, 1358, 1359, 1443, 1442
1343, 1359, 1360, 1444, 1443
1344, 1360, 1361, 1445, 1444
1345, 1361, 1362, 1446, 1445
1346, 1362, 1363, 1447, 1446
1347, 1363, 1364, 1448, 1447
1348, 1364, 1365, 1449, 1448
1349, 1365, 1366, 1450, 1449
1350, 1366, 1367, 1451, 1450
1351, 1367, 1368, 1452, 1451
1352, 1368, 1369, 1453, 1452
1353, 1369, 1370, 1454, 1453
1354, 1370, 1371, 1455, 1454
1355, 1371, 1372, 1456, 1455
1356, 1372, 1373, 1457, 1456
1357, 1373, 1374, 1458, 1457
1358, 1374, 1375, 1459, 1458
1359, 1375, 1376, 1460, 1459
1360, 1376, 1377, 1461, 1460
1361, 1377, 1378, 1462, 1461
1362, 1378, 1379, 1463, 1462
1363, 1379, 1380, 1464, 1463
1364, 1380, 1381, 1465, 1464
1365, 1381, 1382, 1466, 1465
1366, 1382, 1383, 1467, 1466
1367, 1383, 1384, 1468, 1467
1368, 1384, 1385, 1469, 1468
1369, 1385, 1386, 1470, 1469
1370, 1386, 1387, 1471, 1470
1371, 1387, 1388, 1472, 1471
1372, 1388, 1389, 1473, 1472
1373, 1389, 1390, 1474, 1473
1374, 1390, 1391, 1475, 1474
1375, 1391, 1392, 1476, 1475
1376, 1392, 1393, 1477, 1476
1377, 1393, 1394, 1478, 1477
1378, 1394, 1395, 1479, 1478
1379, 1395, 1396, 1480, 1479
1380, 1396, 1397, 1481, 1480
1381, 1397, 1398, 1482, 1481
1382, 1398, 1399, 1483, 1482
1383, 1399, 1400, 1484, 1483
1384, 1400, 1401, 1485, 1484
1385, 1401, 1402, 1486, 1485
1386, 1402, 1403, 1487, 1486
1387, 1403, 1404, 1488, 1487
1388, 1404, 1405, 1489, 1488
1389, 1405, 1406, 1490, 1489
1390, 1406, 1407, 1491, 1490
1391, 1407, 1408, 1492, 1491
1392, 1408, 1409, 1493, 1492
1393, 1409, 1410, 1494, 1493
1394, 1410, 1411, 1495, 1494
1395, 1411, 1412, 1496, 1495
1396, 1412, 1413, 1497, 1496
1397, 1413, 1414, 1498, 1497
1398, 1414, 1415, 1499, 1498
1399, 1415, 1416, 1500, 1499
1400, 1416, 1417, 1501, 1500
1401, 1417, 1418, 1502, 1501
1402, 1418, 1419, 1503, 1502
1403, 1419, 1420, 1504, 1503
1404, 1420, 1421, 1505, 1504
1405, 1421, 1422, 1506, 1505
1406, 1422, 1423, 1507, 1506
1407, 1423, 1424, 1508, 1507
1408, 1424, 1425, 1509, 1508
1409, 1425, 1426, 1510, 1509
1410, 1426, 1427, 1511, 1510
1411, 1427, 1428, 1512, 1511
1412, 1429, 1430, 1514, 1513
1413, 1430, 1431, 1515, 1514
1414, 1431, 1432, 1516, 1515
1415, 1432, 1433, 1517, 1516
1416, 1433, 1434, 1518, 1517
1417, 1434, 1435, 1519, 1518
1418, 1435, 1436, 1520, 1519
1419, 1436, 1437, 1521, 1520
1420, 1437, 1438, 1522, 1521
1421, 1438, 1439, 1523, 1522
1422, 1439, 1440, 1524, 1523
1423, 1440, 1441, 1525, 1524
1424, 1441, 1442, 1526, 1525
1425, 1442, 1443, 1527, 1526
1426, 1443, 1444, 1528, 1527
1427, 1444, 1445, 1529, 1528
1428, 1445, 1446, 1530, 1529
1429, 1446, 1447, 1531, 1530
1430, 1447, 1448, 1532, 1531
1431, 1448, 1449, 1533, 1532
1432, 1449, 1450, 1534, 1533
1433, 1450, 1451, 1535, 1534
1434, 1451, 1452, 1536, 1535
1435, 1452, 1453, 1537, 1536
1436, 1453, 1454, 1538, 1537
1437, 1454, 1455, 1539, 1538
1438, 1455, 1456, 1540, 1539
1439, 1456, 1457, 1541, 1540
1440, 1457, 1458, 1542, 1541
1441, 1458, 1459, 1543, 1542
1442, 1459, 1460, 1544, 1543
1443, 1460, 1461, 1545, 1544
1444, 1461, 1462, 1546, 1545
1445, 1462, 1463, 1547, 1546
1446, 1463, 1464, 1548, 1547
1447, 1464, 1465, 1549, 1548
1448, 1465, 1466, 1550, 1549
1449, 1466, 1467, 1551, 1550
1450, 1467, 1468, 1552, 1551
1451, 1468, 1469, 1553, 1552
1452, 1469, 1470, 1554, 1553
1453, 1470, 1471, 1555, 1554
1454, 1471, 1472, 1556, 1555
1455, 1472, 1473, 1557, 1556
1456, 1473, 1474, 1558, 1557
1457, 1474, 1475, 1559, 1558
1458, 1475, 1476, 1560, 1559
1459, 1476, 1477, 1561, 1560
1460, 1477, 1478, 1562, 1561
1461, 1478, 1479, 1563, 1562
1462, 1479, 1480, 1564, 1563
1463, 1480, 1481, 1565, 1564
1464, 1481, 1482, 1566, 1565
1465, 1482, 1483, 1567, 1566
1466, 1483, 1484, 1568, 1567
1467, 1484, 1485, 1569, 1568
1468, 1485, 1486, 1570, 1569
1469, 1486, 1487, 1571, 1570
1470, 1487, 1488, 1572, 1571
1471, 1488, 1489, 1573, 1572
1472, 1489, 1490, 1574, 1573
1473, 1490, 1491, 1575, 1574
1474, 1491, 1492, 1576, 1575
1475, 1492, 1493, 1577, 1576
1476, 1493, 1494, 1578, 1577
1477, 1494, 1495, 1579, 1578
1478, 1495, 1496, 1580, 1579
1479, 1496, 1497, 1581, 1580
1480, 1497, 1498, 1582, 1581
1481, 1498, 1499, 1583, 1582
1482, 1499, 1500, 1584, 1583
1483, 1500, 1501, 1585, 1584
1484, 1501, 1502, 1586, 1585
1485, 1502, 1503, 1587, 1586
1486, 1503, 1504, 1588, 1587
1487, 1504, 1505, 1589, 1588
1488, 1505, 1506, 1590, 1589
1489, 1506, 1507, 1591, 1590
1490, 1507, 1508, 1592, 1591
1491, 1508, 1509, 1593, 1592
1492, 1509, 1510, 1594, 1593
1493, 1510, 1511, 1595, 1594
1494, 1511, 1512, 1596, 1595
1495, 1513, 1514, 1598, 1597
1496, 1514, 1515, 1599, 1598
1497, 1515, 1516, 1600, 1599
1498, 1516, 1517, 1601, 1600
1499, 1517, 1518, 1602, 1601
1500, 1518, 1519, 1603, 1602
1501, 1519, 1520, 1604, 1603
1502, 1520, 1521, 1605, 1604
1503, 1521, 1522, 1606, 1605
1504, 1522, 1523, 1607, 1606
1505, 1523, 1524, 1608, 1607
1506, 1524, 1525, 1609, 1608
1507, 1525, 1526, 1610, 1609
1508, 1526, 1527, 1611, 1610
1509, 1527, 1528, 1612, 1611
1510, 1528, 1529, 1613, 1612
1511, 1529, 1530, 1614, 1613
1512, 1530, 1531, 1615, 1614
1513, 1531, 1532, 1616, 1615
1514, 1532, 1533, 1617, 1616
1515, 1533, 1534, 1618, 1617
1516, 1534, 1535, 1619, 1618
1517, 1535, 1536, 1620, 1619
1518, 1536, 1537, 1621, 1620
1519, 1537, 1538, 1622, 1621
1520, 1538, 1539, 1623, 1622
1521, 1539, 1540, 1624, 1623
1522, 1540, 1541, 1625, 1624
1523, 1541, 1542, 1626, 1625
1524, 1542, 1543, 1627, 1626
1525, 1543, 1544, 1628, 1627
1526, 1544, 1545, 1629, 1628
1527, 1545, 1546, 1630, 1629
1528, 1546, 1547, 1631, 1630
1529, 1547, 1548, 1632, 1631
1530, 1548, 1549, 1633, 1632
1531, 1549, 1550, 1634, 1633
1532, 1550, 1551, 1635, 1634
1533, 1551, 1552, 1636, 1635
1534, 1552, 1553, 1637, 1636
1535, 1553, 1554, 1638, 1637
1536, 1554, 1555, 1639, 1638
1537, 1555, 1556, 1640, 1639
1538, 1556, 1557, 1641, 1640
1539, 1557, 1558, 1642, 1641
1540, 1558, 1559, 1643, 1642
1541, 1559, 1560, 1644, 1643
1542, 1560, 1561, 1645, 1644
1543, 1561, 1562, 1646, 1645
1544, 1562, 1563, 1647, 1646
1545, 1563, 1564, 1648, 1647
1546, 1564, 1565, 1649, 1648
1547, 1565, 1566, 1650, 1649
1548, 1566, 1567, 1651, 1650
1549, 1567, 1568, 1652, 1651
1550, 1568, 1569, 1653, 1652
1551, 1569, 1570, 1654, 1653
1552, 1570, 1571, 1655, 1654
1553, 1571, 1572, 1656, 1655
1554, 1572, 1573, 1657, 1656
1555, 1573, 1574, 1658, 1657
1556, 1574, 1575, 1659, 1658
1557, 1575, 1576, 1660, 1659
1558, 1576, 1577, 1661, 1660
1559, 1577, 1578, 1662, 1661
1560, 1578, 1579, 1663, 1662
1561, 1579, 1580, 1664, 1663
1562, 1580, 1581, 1665, 1664
1563, 1581, 1582, 1666, 1665
1564, 1582, 1583, 1667, 1666
1565, 1583, 1584, 1668, 1667
1566, 1584, 1585, 1669, 1668
1567, 1585, 1586, 1670, 1669
1568, 1586, 1587, 1671, 1670
1569, 1587, 1588, 1672, 1671
1570, 1588, 1589, 1673, 1672
1571, 1589, 1590, 1674, 1673
1572, 1590, 1591, 1675, 1674
1573, 1591, 1592, 1676, 1675
1574, 1592, 1593, 1677, 1676
1575, 1593, 1594, 1678, 1677
1576, 1594, 1595, 1679, 1678
1577, 1595, 1596, 1680, 1679
1578, 1597, 1598, 1682, 1681
1579, 1598, 1599, 1683, 1682
1580, 1599, 1600, 1684, 1683
1581, 1600, 1601, 1685, 1684
1582, 1601, 1602, 1686, 1685
1583, 1602, 1603, 1687, 1686
1584, 1603, 1604, 1688, 1687
1585, 1604, 1605, 1689, 1688
1586, 1605, 1606, 1690, 1689
1587, 1606, 1607, 1691, 1690
1588, 1607, 1608, 1692, 1691
1589, 1608, 1609, 1693, 1692
1590, 1609, 1610, 1694, 1693
1591, 1610, 1611, 1695, 1694
1592, 1611, 1612, 1696, 1695
1593, 1612, 1613, 1697, 1696
1594, 1613, 1614, 1698, 1697
1595, 1614, 1615, 1699, 1698
1596, 1615, 1616, 1700, 1699
1597, 1616, 1617, 1701, 1700
1598, 1617, 1618, 1702, 1701
1599, 1618, 1619, 1703, 1702
1600, 1619, 1620, 1704, 1703
1601, 1620, 1621, 1705, 1704
1602, 1621, 1622, 1706, 1705
1603, 1622, 1623, 1707, 1706
1604, 1623, 1624, 1708, 1707
1605, 1624, 1625, 1709, 1708
1606, 1625, 1626, 1710, 1709
1607, 1626, 1627, 1711, 1710
1608, 1627, 1628, 1712, 1711
1609, 1628, 1629, 1713, 1712
1610, 1629, 1630, 1714, 1713
1611, 1630, 1631, 1715, 1714
1612, 1631, 1632, 1716, 1715
1613, 1632, 1633, 1717, 1716
1614, 1633, 1634, 1718, 1717
1615, 1634, 1635, 1719, 1718
1616, 1635, 1636, 1720, 1719
1617, 1636, 1637, 1721, 1720
1618, 1637, 1638, 1722, 1721
1619, 1638, 1639, 1723, 1722
1620, 1639, 1640, 1724, 1723
1621, 1640, 1641, 1725, 1724
1622, 1641, 1642, 1726, 1725
1623, 1642, 1643, 1727, 1726
1624, 1643, 1644, 1728, 1727
1625, 1644, 1645, 1729, 1728
1626, 1645, 1646, 1730, 1729
1627, 1646, 1647, 1731, 1730
1628, 1647, 1648, 1732, 1731
1629, 1648, 1649, 1733, 1732
1630, 1649, 1650, 1734, 1733
1631, 1650, 1651, 1735, 1734
1632, 1651, 1652, 1736, 1735
1633, 1652, 1653, 1737, 1736
1634, 1653, 1654, 1738, 1737
1635, 1654, 1655, 1739, 1738
1636, 1655, 1656, 1740, 1739
1637, 1656, 1657, 1741, 1740
1638, 1657, 1658, 1742, 1741
1639, 1658, 1659, 1743, 1742
1640, 1659, 1660, 1744, 1743
1641, 1660, 1661, 1745, 1744
1642, 1661, 1662, 1746, 1745
1643, 1662, 1663, 1747, 1746
1644, 1663, 1664, 1748, 1747
1645, 1664, 1665, 1749, 1748
1646, 1665, 1666, 1750, 1749
1647, 1666, 1667, 1751, 1750
1648, 1667, 1668, 1752, 1751
1649, 1668, 1669, 1753, 1752
1650, 1669, 1670, 1754, 1753
1651, 1670, 1671, 1755, 1754
1652, 1671, 1672, 1756, 1755
1653, 1672, 1673, 1757, 1756
1654, 1673, 1674, 1758, 1757
1655, 1674, 1675, 1759, 1758
1656, 1675, 1676, 1760, 1759
1657, 1676, 1677, 1761, 1760
1658, 1677, 1678, 1762, 1761
1659, 1678, 1679, 1763, 1762
1660, 1679, 1680, 1764, 1763
1661, 1681, 1682, 1766, 1765
1662, 1682, 1683, 1767, 1766
1663, 1683, 1684, 1768, 1767
1664, 1684, 1685, 1769, 1768
1665, 1685, 1686, 1770, 1769
1666, 1686, 1687, 1771, 1770
1667, 1687, 1688, 1772, 1771
1668, 1688, 1689, 1773, 1772
1669, 1689, 1690, 1774, 1773
1670, 1690, 1691, 1775, 1774
1671, 1691, 1692, 1776, 1775
1672, 1692, 1693, 1777, 1776
1673, 1693, 1694, 1778, 1777
1674, 1694, 1695, 1779, 1778
1675, 1695, 1696, 1780, 1779
1676, 1696, 1697, 1781, 1780
1677, 1697, 1698, 1782, 1781
1678, 1698, 1699, 1783, 1782
1679, 1699, 1700, 1784, 1783
1680, 1700, 1701, 1785, 1784
1681, 1701, 1702, 1786, 1785
1682, 1702, 1703, 1787, 1786
1683, 1703, 1704, 1788, 1787
1684, 1704, 1705, 1789, 1788
1685, 1705, 1706, 1790, 1789
1686, 1706, 1707, 1791, 1790
1687, 1707, 1708, 1792, 1791
1688, 1708, 1709, 1793, 1792
1689, 1709, 1710, 1794, 1793
1690, 1710, 1711, 1795, 1794
1691, 1711, 1712, 1796, 1795
1692, 1712, 1713, 1797, 1796
1693, 1713, 1714, 1798, 1797
1694, 1714, 1715, 1799, 1798
1695, 1715, 1716, 1800, 1799
1696, 1716, 1717, 1801, 1800
1697, 1717, 1718, 1802, 1801
1698, 1718, 1719, 1803, 1802
1699, 1719, 1720, 1804, 1803
1700, 1720, 1721, 1805, 1804
1701, 1721, 1722, 1806, 1805
1702, 1722, 1723, 1807, 1806
1703, 1723, 1724, 1808, 1807
1704, 1724, 1725, 1809, 1808
1705, 1725, 1726, 1810, 1809
1706, 1726, 1727, 1811, 1810
1707, 1727, 1728, 1812, 1811
1708, 1728, 1729, 1813, 1812
1709, 1729, 1730, 1814, 1813
1710, 1730, 1731, 1815, 1814
1711, 1731, 1732, 1816, 1815
1712, 1732, 1733, 1817, 1816
1713, 1733, 1734, 1818, 1817
1714, 1734, 1735, 1819, 1818
1715, 1735, 1736, 1820, 1819
1716, 1736, 1737, 1821, 1820
1717, 1737, 1738, 1822, 1821
1718, 1738, 1739, 1823, 1822
1719, 1739, 1740, 1824, 1823
1720, 1740, 1741, 1825, 1824
1721, 1741, 1742, 1826, 1825
1722, 1742, 1743, 1827, 1826
1723, 1743, 1744, 1828, 1827
1724, 1744, 1745, 1829, 1828
1725, 1745, 1746, 1830, 1829
1726, 1746, 1747, 1831, 1830
1727, 1747, 1748, 1832, 1831
1728, 1748, 1749, 1833, 1832
1729, 1749, 1750, 1834, 1833
1730, 1750, 1751, 1835, 1834
1731, 1751, 1752, 1836, 1835
1732, 1752, 1753, 1837, 1836
1733, 1753, 1754, 1838, 1837
1734, 1754, 1755, 1839, 1838
1735, 1755, 1756, 1840, 1839
1736, 1756, 1757, 1841, 1840
1737, 1757, 1758, 1842, 1841
1738, 1758, 1759, 1843, 1842
1739, 1759, 1760, 1844, 1843
1740, 1760, 1761, 1845, 1844
1741, 1761, 1762, 1846, 1845
1742, 1762, 1763, 1847, 1846
1743, 1763, 1764, 1848, 1847
1744, 1765, 1766, 1850, 1849
1745, 1766, 1767, 1851, 1850
1746, 1767, 1768, 1852, 1851
1747, 1768, 1769, 1853, 1852
1748, 1769, 1770, 1854, 1853
1749, 1770, 1771, 1855, 1854
1750, 1771, 1772, 1856, 1855
1751, 1772, 1773, 1857, 1856
1752, 1773, 1774, 1858, 1857
1753, 1774, 1775, 1859, 1858
1754, 1775, 1776, 1860, 1859
1755, 1776, 1777, 1861, 1860
1756, 1777, 1778, 1862, 1861
1757, 1778, 1779, 1863, 1862
1758, 1779, 1780, 1864, 1863
1759, 1780, 1781, 1865, 1864
1760, 1781, 1782, 1866, 1865
1761, 1782, 1783, 1867, 1866
1762, 1783, 1784, 1868, 1867
1763, 1784, 1785, 1869, 1868
1764, 1785, 1786, 1870, 1869
1765, 1786, 1787, 1871, 1870
1766, 1787, 1788, 1872, 1871
1767, 1788, 1789, 1873, 1872
1768, 1789, 1790, 1874, 1873
1769, 1790, 1791, 1875, 1874
1770, 1791, 1792, 1876, 1875
1771, 1792, 1793, 1877, 1876
1772, 1793, 1794, 1878, 1877
1773, 1794, 1795, 1879, 1878
1774, 1795, 1796, 1880, 1879
1775, 1796, 1797, 1881, 1880
1776, 1797, 1798, 1882, 1881
1777, 1798, 1799, 1883, 1882
1778, 1799, 1800, 1884, 1883
1779, 1800, 1801, 1885, 1884
1780, 1801, 1802, 1886, 1885
1781, 1802, 1803, 1887, 1886
1782, 1803, 1804, 1888, 1887
1783, 1804, 1805, 1889, 1888
1784, 1805, 1806, 1890, 1889
1785, 1806, 1807, 1891, 1890
1786, 1807, 1808, 1892, 1891
1787, 1808, 1809, 1893, 1892
1788, 1809, 1810, 1894, 1893
1789, 1810, 1811, 1895, 1894
1790, 1811, 1812, 1896, 1895
1791, 1812, 1813, 1897, 1896
1792, 1813, 1814, 1898, 1897
1793, 1814, 1815, 1899, 1898
1794, 1815, 1816, 1900, 1899
1795, 1816, 1817, 1901, 1900
1796, 1817, 1818, 1902, 1901
1797, 1818, 1819, 1903, 1902
1798, 1819, 1820, 1904, 1903
1799, 1820, 1821, 1905, 1904
1800, 1821, 1822, 1906, 1905
1801, 1822, 1823, 1907, 1906
1802, 1823, 1824, 1908, 1907
1803, 1824, 1825, 1909, 1908
1804, 1825, 1826, 1910, 1909
1805, 1826, 1827, 1911, 1910
1806, 1827, 1828, 1912, 1911
1807, 1828, 1829, 1913, 1912
1808, 1829, 1830, 1914, 1913
1809, 1830, 1831, 1915, 1914
1810, 1831, 1832, 1916, 1915
1811, 1832, 1833, 1917, 1916
1812, 1833, 1834, 1918, 1917
1813, 1834, 1835, 1919, 1918
1814, 1835, 1836, 1920, 1919
1815, 1836, 1837, 1921, 1920
1816, 1837, 1838, 1922, 1921
1817, 1838, 1839, 1923, 1922
1818, 1839, 1840, 1924, 1923
1819, 1840, 1841, 1925, 1924
1820, 1841, 1842, 1926, 1925
1821, 1842, 1843, 1927, 1926
1822, 1843, 1844, 1928, 1927
1823, 1844, 1845, 1929, 1928
1824, 1845, 1846, 1930, 1929
1825, 1846, 1847, 1931, 1930
1826, 1847, 1848, 1932, 1931
1827, 1849, 1850, 1934, 1933
1828, 1850, 1851, 1935, 1934
1829, 1851, 1852, 1936, 1935
1830, 1852, 1853, 1937, 1936
1831, 1853, 1854, 1938, 1937
1832, 1854, 1855, 1939, 1938
1833, 1855, 1856, 1940, 1939
1834, 1856, 1857, 1941, 1940
1835, 1857, 1858, 1942, 1941
1836, 1858, 1859, 1943, 1942
1837, 1859, 1860, 1944, 1943
1838, 1860, 1861, 1945, 1944
1839, 1861, 1862, 1946, 1945
1840, 1862, 1863, 1947, 1946
1841, 1863, 1864, 1948, 1947
1842, 1864, 1865, 1949, 1948
1843, 1865, 1866, 1950, 1949
1844, 1866, 1867, 1951, 1950
1845, 1867, 1868, 1952, 1951
1846, 1868, 1869, 1953, 1952
1847, 1869, 1870, 1954, 1953
1848, 1870, 1871, 1955, 1954
1849, 1871, 1872, 1956, 1955
1850, 1872, 1873, 1957, 1956
1851, 1873, 1874, 1958, 1957
1852, 1874, 1875, 1959, 1958
1853, 1875, 1876, 1960, 1959
1854, 1876, 1877, 1961, 1960
1855, 1877, 1878, 1962, 1961
1856, 1878, 1879, 1963, 1962
1857, 1879, 1880, 1964, 1963
1858, 1880, 1881, 1965, 1964
1859, 1881, 1882, 1966, 1965
1860, 1882, 1883, 1967, 1966
1861, 1883, 1884, 1968, 1967
1862, 1884, 1885, 1969, 1968
1863, 1885, 1886, 1970, 1969
1864, 1886, 1887, 1971, 1970
1865, 1887, 1888, 1972, 1971
1866, 1888, 1889, 1973, 1972
1867, 1889, 1890, 1974, 1973
1868, 1890, 1891, 1975, 1974
1869, 1891, 1892, 1976, 1975
1870, 1892, 1893, 1977, 1976
1871, 1893, 1894, 1978, 1977
1872, 1894, 1895, 1979, 1978
1873, 1895, 1896, 1980, 1979
1874, 1896, 1897, 1981, 1980
1875, 1897, 1898, 1982, 1981
1876, 1898, 1899, 1983, 1982
1877, 1899, 1900, 1984, 1983
1878, 1900, 1901, 1985, 1984
1879, 1901, 1902, 1986, 1985
1880, 1902, 1903, 1987, 1986
1881, 1903, 1904, 1988, 1987
1882, 1904, 1905, 1989, 1988
1883, 1905, 1906, 1990, 1989
1884, 1906, 1907, 1991, 1990
1885, 1907, 1908, 1992, 1991
1886, 1908, 1909, 1993, 1992
1887, 1909, 1910, 1994, 1993
1888, 1910, 1911, 1995, 1994
1889, 1911, 1912, 1996, 1995
1890, 1912, 1913, 1997, 1996
1891, 1913, 1914, 1998, 1997
1892, 1914, 1915, 1999, 1998
1893, 1915, 1916, 2000, 1999
1894, 1916, 1917, 2001, 2000
1895, 1917, 1918, 2002, 2001
1896, 1918, 1919, 2003, 2002
1899, 1921, 1922, 2006, 2005
1900, 1922, 1923, 2007, 2006
1901, 1923, 1924, 2008, 2007
1902, 1924, 1925, 2009, 2008
1903, 1925, 1926, 2010, 2009
1904, 1926, 1927, 2011, 2010
1905, 1927, 1928, 2012, 2011
1906, 1928, 1929, 2013, 2012
1909, 1931, 1932, 2016, 2015
1910, 1933, 1934, 2018, 2017
1911, 1934, 1935, 2019, 2018
1912, 1935, 1936, 2020, 2019
1913, 1936, 1937, 2021, 2020
1914, 1937, 1938, 2022, 2021
1915, 1938, 1939, 2023, 2022
1918, 1941, 1942, 2026, 2025
1919, 1942, 1943, 2027, 2026
1920, 1943, 1944, 2028, 2027
1921, 1944, 1945, 2029, 2028
1922, 1945, 1946, 2030, 2029
1923, 1946, 1947, 2031, 2030
1924, 1947, 1948, 2032, 2031
1925, 1948, 1949, 2033, 2032
1928, 1951, 1952, 2036, 2035
1929, 1952, 1953, 2037, 2036
1930, 1953, 1954, 2038, 2037
1931, 1954, 1955, 2039, 2038
1932, 1955, 1956, 2040, 2039
1933, 1956, 1957, 2041, 2040
1934, 1957, 1958, 2042, 2041
1935, 1958, 1959, 2043, 2042
1938, 1961, 1962, 2046, 2045
1939, 1962, 1963, 2047, 2046
1940, 1963, 1964, 2048, 2047
1941, 1964, 1965, 2049, 2048
1942, 1965, 1966, 2050, 2049
1943, 1966, 1967, 2051, 2050
1944, 1967, 1968, 2052, 2051
1945, 1968, 1969, 2053, 2052
1948, 1971, 1972, 2056, 2055
1949, 1972, 1973, 2057, 2056
1950, 1973, 1974, 2058, 2057
1951, 1974, 1975, 2059, 2058
1952, 1975, 1976, 2060, 2059
1953, 1976, 1977, 2061, 2060
1954, 1977, 1978, 2062, 2061
1955, 1978, 1979, 2063, 2062
1958, 1981, 1982, 2066, 2065
1959, 1982, 1983, 2067, 2066
1960, 1983, 1984, 2068, 2067
1961, 1984, 1985, 2069, 2068
1962, 1985, 1986, 2070, 2069
1963, 1986, 1987, 2071, 2070
1964, 1987, 1988, 2072, 2071
1965, 1988, 1989, 2073, 2072
1968, 1991, 1992, 2076, 2075
1969, 1992, 1993, 2077, 2076
1970, 1993, 1994, 2078, 2077
1971, 1994, 1995, 2079, 2078
1972, 1995, 1996, 2080, 2079
1973, 1996, 1997, 2081, 2080
1974, 1997, 1998, 2082, 2081
1975, 1998, 1999, 2083, 2082
1978, 2001, 2002, 2086, 2085
1979, 2002, 2003, 2087, 2086
1982, 2005, 2006, 2090, 2089
1983, 2006, 2007, 2091, 2090
1984, 2007, 2008, 2092, 2091
1985, 2008, 2009, 2093, 2092
1988, 2011, 2012, 2096, 2095
1989, 2012, 2013, 2097, 2096
1992, 2015, 2016, 2100, 2099
1993, 2017, 2018, 2102, 2101
1994, 2018, 2019, 2103, 2102
1995, 2019, 2020, 2104, 2103
1996, 2020, 2021, 2105, 2104
1997, 2021, 2022, 2106, 2105
1998, 2022, 2023, 2107, 2106
2001, 2025, 2026, 2110, 2109
2002, 2026, 2027, 2111, 2110
2003, 2027, 2028, 2112, 2111
2005, 2029, 2030, 2114, 2113
2006, 2030, 2031, 2115, 2114
2007, 2031, 2032, 2116, 2115
2008, 2032, 2033, 2117, 2116
2011, 2035, 2036, 2120, 2119
2012, 2036, 2037, 2121, 2120
2013, 2037, 2038, 2122, 2121
2015, 2039, 2040, 2124, 2123
2016, 2040, 2041, 2125, 2124
2017, 2041, 2042, 2126, 2125
2018, 2042, 2043, 2127, 2126
2021, 2045, 2046, 2130, 2129
2022, 2046, 2047, 2131, 2130
2023, 2047, 2048, 2132, 2131
2025, 2049, 2050, 2134, 2133
2026, 2050, 2051, 2135, 2134
2027, 2051, 2052, 2136, 2135
2028, 2052, 2053, 2137, 2136
2031, 2055, 2056, 2140, 2139
2032, 2056, 2057, 2141, 2140
2033, 2057, 2058, 2142, 2141
2035, 2059, 2060, 2144, 2143
2036, 2060, 2061, 2145, 2144
2037, 2061, 2062, 2146, 2145
2038, 2062, 2063, 2147, 2146
2041, 2065, 2066, 2150, 2149
2042, 2066, 2067, 2151, 2150
2043, 2067, 2068, 2152, 2151
2045, 2069, 2070, 2154, 2153
2046, 2070, 2071, 2155, 2154
2047, 2071, 2072, 2156, 2155
2048, 2072, 2073, 2157, 2156
2051, 2075, 2076, 2160, 2159
2052, 2076, 2077, 2161, 2160
2053, 2077, 2078, 2162, 2161
2055, 2079, 2080, 2164, 2163
2056, 2080, 2081, 2165, 2164
2057, 2081, 2082, 2166, 2165
2058, 2082, 2083, 2167, 2166
2061, 2085, 2086, 2170, 2169
2062, 2086, 2087, 2171, 2170
2063, 2087, 2088, 2172, 2171
2065, 2089, 2090, 2174, 2173
2066, 2090, 2091, 2175, 2174
2067, 2091, 2092, 2176, 2175
2068, 2092, 2093, 2177, 2176
2071, 2095, 2096, 2180, 2179
2072, 2096, 2097, 2181, 2180
2073, 2097, 2098, 2182, 2181
2075, 2099, 2100, 2184, 2183
2076, 2101, 2102, 2186, 2185
2077, 2102, 2103, 2187, 2186
2078, 2103, 2104, 2188, 2187
2079, 2104, 2105, 2189, 2188
2080, 2105, 2106, 2190, 2189
2081, 2106, 2107, 2191, 2190
2082, 2107, 2108, 2192, 2191
2083, 2108, 2109, 2193, 2192
2085, 2110, 2111, 2195, 2194
2086, 2111, 2112, 2196, 2195
2087, 2112, 2113, 2197, 2196
2088, 2113, 2114, 2198, 2197
2089, 2114, 2115, 2199, 2198
2090, 2115, 2116, 2200, 2199
2091, 2116, 2117, 2201, 2200
2092, 2117, 2118, 2202, 2201
2093, 2118, 2119, 2203, 2202
2095, 2120, 2121, 2205, 2204
2096, 2121, 2122, 2206, 2205
2097, 2122, 2123, 2207, 2206
2098, 2123, 2124, 2208, 2207
2099, 2124, 2125, 2209, 2208
2100, 2125, 2126, 2210, 2209
2101, 2126, 2127, 2211, 2210
2102, 2127, 2128, 2212, 2211
2103, 2128, 2129, 2213, 2212
2104, 2129, 2130, 2214, 2213
2105, 2130, 2131, 2215, 2214
2106, 2131, 2132, 2216, 2215
2107, 2132, 2133, 2217, 2216
2108, 2133, 2134, 2218, 2217
2109, 2134, 2135, 2219, 2218
2110, 2135, 2136, 2220, 2219
2111, 2136, 2137, 2221, 2220
2112, 2137, 2138, 2222, 2221
2113, 2138, 2139, 2223, 2222
2114, 2139, 2140, 2224, 2223
2115, 2140, 2141, 2225, 2224
2116, 2141, 2142, 2226, 2225
2117, 2142, 2143, 2227, 2226
2118, 2143, 2144, 2228, 2227
2119, 2144, 2145, 2229, 2228
2120, 2145, 2146, 2230, 2229
2121, 2146, 2147, 2231, 2230
2122, 2147, 2148, 2232, 2231
2123, 2148, 2149, 2233, 2232
2124, 2149, 2150, 2234, 2233
2125, 2150, 2151, 2235, 2234
2126, 2151, 2152, 2236, 2235
2127, 2152, 2153, 2237, 2236
2128, 2153, 2154, 2238, 2237
2129, 2154, 2155, 2239, 2238
2130, 2155, 2156, 2240, 2239
2131, 2156, 2157, 2241, 2240
2132, 2157, 2158, 2242, 2241
2133, 2158, 2159, 2243, 2242
2134, 2159, 2160, 2244, 2243
2135, 2160, 2161, 2245, 2244
2136, 2161, 2162, 2246, 2245
2137, 2162, 2163, 2247, 2246
2138, 2163, 2164, 2248, 2247
2139, 2164, 2165, 2249, 2248
2140, 2165, 2166, 2250, 2249
2141, 2166, 2167, 2251, 2250
2142, 2167, 2168, 2252, 2251
2143, 2168, 2169, 2253, 2252
2144, 2169, 2170, 2254, 2253
2145, 2170, 2171, 2255, 2254
2146, 2171, 2172, 2256, 2255
2147, 2172, 2173, 2257, 2256
2148, 2173, 2174, 2258, 2257
2149, 2174, 2175, 2259, 2258
2150, 2175, 2176, 2260, 2259
2151, 2176, 2177, 2261, 2260
2152, 2177, 2178, 2262, 2261
2153, 2178, 2179, 2263, 2262
2154, 2179, 2180, 2264, 2263
2155, 2180, 2181, 2265, 2264
2156, 2181, 2182, 2266, 2265
2157, 2182, 2183, 2267, 2266
2158, 2183, 2184, 2268, 2267
2159, 2185, 2186, 2270, 2269
2160, 2186, 2187, 2271, 2270
2161, 2187, 2188, 2272, 2271
2162, 2188, 2189, 2273, 2272
2163, 2189, 2190, 2274, 2273
2164, 2190, 2191, 2275, 2274
2165, 2191, 2192, 2276, 2275
2166, 2192, 2193, 2277, 2276
2167, 2193, 2194, 2278, 2277
2168, 2194, 2195, 2279, 2278
2169, 2195, 2196, 2280, 2279
2170, 2196, 2197, 2281, 2280
2171, 2197, 2198, 2282, 2281
2172, 2198, 2199, 2283, 2282
2173, 2199, 2200, 2284, 2283
2174, 2200, 2201, 2285, 2284
2175, 2201, 2202, 2286, 2285
2176, 2202, 2203, 2287, 2286
2177, 2203, 2204, 2288, 2287
2178, 2204, 2205, 2289, 2288
2179, 2205, 2206, 2290, 2289
2180, 2206, 2207, 2291, 2290
2181, 2207, 2208, 2292, 2291
2182, 2208, 2209, 2293, 2292
2183, 2209, 2210, 2294, 2293
2184, 2210, 2211, 2295, 2294
2185, 2211, 2212, 2296, 2295
2186, 2212, 2213, 2297, 2296
2187, 2213, 2214, 2298, 2297
2188, 2214, 2215, 2299, 2298
2189, 2215, 2216, 2300, 2299
2190, 2216, 2217, 2301, 2300
2191, 2217, 2218, 2302, 2301
2192, 2218, 2219, 2303, 2302
2193, 2219, 2220, 2304, 2303
2194, 2220, 2221, 2305, 2304
2195, 2221, 2222, 2306, 2305
2196, 2222, 2223, 2307, 2306
2197, 2223, 2224, 2308, 2307
2198, 2224, 2225, 2309, 2308
2199, 2225, 2226, 2310, 2309
2200, 2226, 2227, 2311, 2310
2201, 2227, 2228, 2312, 2311
2202, 2228, 2229, 2313, 2312
2203, 2229, 2230, 2314, 2313
2204, 2230, 2231, 2315, 2314
2205, 2231, 2232, 2316, 2315
2206, 2232, 2233, 2317, 2316
2207, 2233, 2234, 2318, 2317
2208, 2234, 2235, 2319, 2318
2209, 2235, 2236, 2320, 2319
2210, 2236, 2237, 2321, 2320
2211, 2237, 2238, 2322, 2321
2212, 2238, 2239, 2323, 2322
2213, 2239, 2240, 2324, 2323
2214, 2240, 2241, 2325, 2324
2215, 2241, 2242, 2326, 2325
2216, 2242, 2243, 2327, 2326
2217, 2243, 2244, 2328, 2327
2218, 2244, 2245, 2329, 2328
2219, 2245, 2246, 2330, 2329
2220, 2246, 2247, 2331, 2330
2221, 2247, 2248, 2332, 2331
2222, 2248, 2249, 2333, 2332
2223, 2249, 2250, 2334, 2333
2224, 2250, 2251, 2335, 2334
2225, 2251, 2252, 2336, 2335
2226, 2252, 2253, 2337, 2336
2227, 2253, 2254, 2338, 2337
2228, 2254, 2255, 2339, 2338
2229, 2255, 2256, 2340, 2339
2230, 2256, 2257, 2341, 2340
2231, 2257, 2258, 2342, 2341
2232, 2258, 2259, 2343, 2342
2233, 2259, 2260, 2344, 2343
2234, 2260, 2261, 2345, 2344
2235, 2261, 2262, 2346, 2345
2236, 2262, 2263, 2347, 2346
2237, 2263, 2264, 2348, 2347
2238, 2264, 2265, 2349, 2348
2239, 2265, 2266, 2350, 2349
2240, 2266, 2267, 2351, 2350
2241, 2267, 2268, 2352, 2351
2242, 2269, 2270, 2354, 2353
2243, 2270, 2271, 2355, 2354
2244, 2271, 2272, 2356, 2355
2245, 2272, 2273, 2357, 2356
2246, 2273, 2274, 2358, 2357
2247, 2274, 2275, 2359, 2358
2248, 2275, 2276, 2360, 2359
2249, 2276, 2277, 2361, 2360
2250, 2277, 2278, 2362, 2361
2251, 2278, 2279, 2363, 2362
2252, 2279, 2280, 2364, 2363
2253, 2280, 2281, 2365, 2364
2254, 2281, 2282, 2366, 2365
2255, 2282, 2283, 2367, 2366
2256, 2283, 2284, 2368, 2367
2257, 2284, 2285, 2369, 2368
2258, 2285, 2286, 2370, 2369
2259, 2286, 2287, 2371, 2370
2260, 2287, 2288, 2372, 2371
2261, 2288, 2289, 2373, 2372
2262, 2289, 2290, 2374, 2373
2263, 2290, 2291, 2375, 2374
2264, 2291, 2292, 2376, 2375
2265, 2292, 2293, 2377, 2376
2266, 2293, 2294, 2378, 2377
2267, 2294, 2295, 2379, 2378
2268, 2295, 2296, 2380, 2379
2269, 2296, 2297, 2381, 2380
2270, 2297, 2298, 2382, 2381
2271, 2298, 2299, 2383, 2382
2272, 2299, 2300, 2384, 2383
2273, 2300, 2301, 2385, 2384
2274, 2301, 2302, 2386, 2385
2275, 2302, 2303, 2387, 2386
2276, 2303, 2304, 2388, 2387
2277, 2304, 2305, 2389, 2388
2278, 2305, 2306, 2390, 2389
2279, 2306, 2307, 2391, 2390
2280, 2307, 2308, 2392, 2391
2281, 2308, 2309, 2393, 2392
2282, 2309, 2310, 2394, 2393
2283, 2310, 2311, 2395, 2394
2284, 2311, 2312, 2396, 2395
2285, 2312, 2313, 2397, 2396
2286, 2313, 2314, 2398, 2397
2287, 2314, 2315, 2399, 2398
2288, 2315, 2316, 2400, 2399
2289, 2316, 2317, 2401, 2400
2290, 2317, 2318, 2402, 2401
2291, 2318, 2319, 2403, 2402
2292, 2319, 2320, 2404, 2403
2293, 2320, 2321, 2405, 2404
2294, 2321, 2322, 2406, 2405
2295, 2322, 2323, 2407, 2406
2296, 2323, 2324, 2408, 2407
2297, 2324, 2325, 2409, 2408
2298, 2325, 2326, 2410, 2409
2299, 2326, 2327, 2411, 2410
2300, 2327, 2328, 2412, 2411
2301, 2328, 2329, 2413, 2412
2302, 2329, 2330, 2414, 2413
2303, 2330, 2331, 2415, 2414
2304, 2331, 2332, 2416, 2415
2305, 2332, 2333, 2417, 2416
2306, 2333, 2334, 2418, 2417
2307, 2334, 2335, 2419, 2418
2308, 2335, 2336, 2420, 2419
2309, 2336, 2337, 2421, 2420
2310, 2337, 2338, 2422, 2421
2311, 2338, 2339, 2423, 2422
2312, 2339, 2340, 2424, 2423
2313, 2340, 2341, 2425, 2424
2314, 2341, 2342, 2426, 2425
2315, 2342, 2343, 2427, 2426
2316, 2343, 2344, 2428, 2427
2317, 2344, 2345, 2429, 2428
2318, 2345, 2346, 2430, 2429
2319, 2346, 2347, 2431, 2430
2320, 2347, 2348, 2432, 2431
2321, 2348, 2349, 2433, 2432
2322, 2349, 2350, 2434, 2433
2323, 2350, 2351, 2435, 2434
2324, 2351, 2352, 2436, 2435
2325, 2353, 2354, 2438, 2437
2326, 2354, 2355, 2439, 2438
2327, 2355, 2356, 2440, 2439
2328, 2356, 2357, 2441, 2440
2329, 2357, 2358, 2442, 2441
2330, 2358, 2359, 2443, 2442
2331, 2359, 2360, 2444, 2443
2332, 2360, 2361, 2445, 2444
2333, 2361, 2362, 2446, 2445
2334, 2362, 2363, 2447, 2446
2335, 2363, 2364, 2448, 2447
2336, 2364, 2365, 2449, 2448
2337, 2365, 2366, 2450, 2449
2338, 2366, 2367, 2451, 2450
2339, 2367, 2368, 2452, 2451
2340, 2368, 2369, 2453, 2452
2341, 2369, 2370, 2454, 2453
2342, 2370, 2371, 2455, 2454
2343, 2371, 2372, 2456, 2455
2344, 2372, 2373, 2457, 2456
2345, 2373, 2374, 2458, 2457
2346, 2374, 2375, 2459, 2458
2347, 2375, 2376, 2460, 2459
2348, 2376, 2377, 2461, 2460
2349, 2377, 2378, 2462, 2461
2350, 2378, 2379, 2463, 2462
2351, 2379, 2380, 2464, 2463
2352, 2380, 2381, 2465, 2464
2353, 2381, 2382, 2466, 2465
2354, 2382, 2383, 2467, 2466
2355, 2383, 2384, 2468, 2467
2356, 2384, 2385, 2469, 2468
2357, 2385, 2386, 2470, 2469
2358, 2386, 2387, 2471, 2470
2359, 2387, 2388, 2472, 2471
2360, 2388, 2389, 2473, 2472
2361, 2389, 2390, 2474, 2473
2362, 2390, 2391, 2475, 2474
2363, 2391, 2392, 2476, 2475
2364, 2392, 2393, 2477, 2476
2365, 2393, 2394, 2478, 2477
2366, 2394, 2395, 2479, 2478
2367, 2395, 2396, 2480, 2479
2368, 2396, 2397, 2481, 2480
2369, 2397, 2398, 2482, 2481
2370, 2398, 2399, 2483, 2482
2371, 2399, 2400, 2484, 2483
2372, 2400, 2401, 2485, 2484
2373, 2401, 2402, 2486, 2485
2374, 2402, 2403, 2487, 2486
2375, 2403, 2404, 2488, 2487
2376, 2404, 2405, 2489, 2488
2377, 2405, 2406, 2490, 2489
2378, 2406, 2407, 2491, 2490
2379, 2407, 2408, 2492, 2491
2380, 2408, 2409, 2493, 2492
2381, 2409, 2410, 2494, 2493
2382, 2410, 2411, 2495, 2494
2383, 2411, 2412, 2496, 2495
2384, 2412, 2413, 2497, 2496
2385, 2413, 2414, 2498, 2497
2386, 2414, 2415, 2499, 2498
2387, 2415, 2416, 2500, 2499
2388, 2416, 2417, 2501, 2500
2389, 2417, 2418, 2502, 2501
2390, 2418, 2419, 2503, 2502
2391, 2419, 2420, 2504, 2503
2392, 2420, 2421, 2505, 2504
2393, 2421, 2422, 2506, 2505
2394, 2422, 2423, 2507, 2506
2395, 2423, 2424, 2508, 2507
2396, 2424, 2425, 2509, 2508
2397, 2425, 2426, 2510, 2509
2398, 2426, 2427, 2511, 2510
2399, 2427, 2428, 2512, 2511
2400, 2428, 2429, 2513, 2512
2401, 2429, 2430, 2514, 2513
2402, 2430, 2431, 2515, 2514
2403, 2431, 2432, 2516, 2515
2404, 2432, 2433, 2517, 2516
2405, 2433, 2434, 2518, 2517
2406, 2434, 2435, 2519, 2518
2407, 2435, 2436, 2520, 2519
2408, 2437, 2438, 2522, 2521
2409, 2438, 2439, 2523, 2522
2410, 2439, 2440, 2524, 2523
2411, 2440, 2441, 2525, 2524
2412, 2441, 2442, 2526, 2525
2413, 2442, 2443, 2527, 2526
2414, 2443, 2444, 2528, 2527
2415, 2444, 2445, 2529, 2528
2416, 2445, 2446, 2530, 2529
2417, 2446, 2447, 2531, 2530
2418, 2447, 2448, 2532, 2531
2419, 2448, 2449, 2533, 2532
2420, 2449, 2450, 2534, 2533
2421, 2450, 2451, 2535, 2534
2422, 2451, 2452, 2536, 2535
2423, 2452, 2453, 2537, 2536
2424, 2453, 2454, 2538, 2537
2425, 2454, 2455, 2539, 2538
2426, 2455, 2456, 2540, 2539
2427, 2456, 2457, 2541, 2540
2428, 2457, 2458, 2542, 2541
2429, 2458, 2459, 2543, 2542
2430, 2459, 2460, 2544, 2543
2431, 2460, 2461, 2545, 2544
2432, 2461, 2462, 2546, 2545
2433, 2462, 2463, 2547, 2546
2434, 2463, 2464, 2548, 2547
2435, 2464, 2465, 2549, 2548
2436, 2465, 2466, 2550, 2549
2437, 2466, 2467, 2551, 2550
2438, 2467, 2468, 2552, 2551
2439, 2468, 2469, 2553, 2552
2440, 2469, 2470, 2554, 2553
2441, 2470, 2471, 2555, 2554
2442, 2471, 2472, 2556, 2555
2443, 2472, 2473, 2557, 2556
2444, 2473, 2474, 2558, 2557
2445, 2474, 2475, 2559, 2558
2446, 2475, 2476, 2560, 2559
2447, 2476, 2477, 2561, 2560
2448, 2477, 2478, 2562, 2561
2449, 2478, 2479, 2563, 2562
2450, 2479, 2480, 2564, 2563
2451, 2480, 2481, 2565, 2564
2452, 2481, 2482, 2566, 2565
2453, 2482, 2483, 2567, 2566
2454, 2483, 2484, 2568, 2567
2455, 2484, 2485, 2569, 2568
2456, 2485, 2486, 2570, 2569
2457, 2486, 2487, 2571, 2570
2458, 2487, 2488, 2572, 2571
2459, 2488, 2489, 2573, 2572
2460, 2489, 2490, 2574, 2573
2461, 2490, 2491, 2575, 2574
2462, 2491, 2492, 2576, 2575
2463, 2492, 2493, 2577, 2576
2464, 2493, 2494, 2578, 2577
2465, 2494, 2495, 2579, 2578
2466, 2495, 2496, 2580, 2579
2467, 2496, 2497, 2581, 2580
2468, 2497, 2498, 2582, 2581
2469, 2498, 2499, 2583, 2582
2470, 2499, 2500, 2584, 2583
2471, 2500, 2501, 2585, 2584
2472, 2501, 2502, 2586, 2585
2473, 2502, 2503, 2587, 2586
2474, 2503, 2504, 2588, 2587
2475, 2504, 2505, 2589, 2588
2476, 2505, 2506, 2590, 2589
2477, 2506, 2507, 2591, 2590
2478, 2507, 2508, 2592, 2591
2479, 2508, 2509, 2593, 2592
2480, 2509, 2510, 2594, 2593
2481, 2510, 2511, 2595, 2594
2482, 2511, 2512, 2596, 2595
2483, 2512, 2513, 2597, 2596
2484, 2513, 2514, 2598, 2597
2485, 2514, 2515, 2599, 2598
2486, 2515, 2516, 2600, 2599
2487, 2516, 2517, 2601, 2600
2488, 2517, 2518, 2602, 2601
2489, 2518, 2519, 2603, 2602
2490, 2519, 2520, 2604, 2603
*ELEMENT, TYPE=CPE4R, ELSET=CUTLAYER
2491, 2605, 2606, 2690, 2689
2492, 2606, 2607, 2691, 2690
2493, 2607, 2608, 2692, 2691
2494, 2608, 2609, 2693, 2692
2495, 2609, 2610, 2694, 2693
2496, 2610, 2611, 2695, 2694
2497, 2611, 2612, 2696, 2695
2498, 2612, 2613, 2697, 2696
2499, 2613, 2614, 2698, 2697
2500, 2614, 2615, 2699, 2698
2501, 2615, 2616, 2700, 2699
2502, 2616, 2617, 2701, 2700
2503, 2617, 2618, 2702, 2701
2504, 2618, 2619, 2703, 2702
2505, 2619, 2620, 2704, 2703
2506, 2620, 2621, 2705, 2704
2507, 2621, 2622, 2706, 2705
2508, 2622, 2623, 2707, 2706
2509, 2623, 2624, 2708, 2707
2510, 2624, 2625, 2709, 2708
2511, 2625, 2626, 2710, 2709
2512, 2626, 2627, 2711, 2710
2513, 2627, 2628, 2712, 2711
2514, 2628, 2629, 2713, 2712
2515, 2629, 2630, 2714, 2713
2516, 2630, 2631, 2715, 2714
2517, 2631, 2632, 2716, 2715
2518, 2632, 2633, 2717, 2716
2519, 2633, 2634, 2718, 2717
2520, 2634, 2635, 2719, 2718
2521, 2635, 2636, 2720, 2719
2522, 2636, 2637, 2721, 2720
2523, 2637, 2638, 2722, 2721
2524, 2638, 2639, 2723, 2722
2525, 2639, 2640, 2724, 2723
2526, 2640, 2641, 2725, 2724
2527, 2641, 2642, 2726, 2725
2528, 2642, 2643, 2727, 2726
2529, 2643, 2644, 2728, 2727
2530, 2644, 2645, 2729, 2728
2531, 2645, 2646, 2730, 2729
2532, 2646, 2647, 2731, 2730
2533, 2647, 2648, 2732, 2731
2534, 2648, 2649, 2733, 2732
2535, 2649, 2650, 2734, 2733
2536, 2650, 2651, 2735, 2734
2537, 2651, 2652, 2736, 2735
2538, 2652, 2653, 2737, 2736
2539, 2653, 2654, 2738, 2737
2540, 2654, 2655, 2739, 2738
2541, 2655, 2656, 2740, 2739
2542, 2656, 2657, 2741, 2740
2543, 2657, 2658, 2742, 2741
2544, 2658, 2659, 2743, 2742
2545, 2659, 2660, 2744, 2743
2546, 2660, 2661, 2745, 2744
2547, 2661, 2662, 2746, 2745
2548, 2662, 2663, 2747, 2746
2549, 2663, 2664, 2748, 2747
2550, 2664, 2665, 2749, 2748
2551, 2665, 2666, 2750, 2749
2552, 2666, 2667, 2751, 2750
2553, 2667, 2668, 2752, 2751
2554, 2668, 2669, 2753, 2752
2555, 2669, 2670, 2754, 2753
2556, 2670, 2671, 2755, 2754
2557, 2671, 2672, 2756, 2755
2558, 2672, 2673, 2757, 2756
2559, 2673, 2674, 2758, 2757
2560, 2674, 2675, 2759, 2758
2561, 2675, 2676, 2760, 2759
2562, 2676, 2677, 2761, 2760
2563, 2677, 2678, 2762, 2761
2564, 2678, 2679, 2763, 2762
2565, 2679, 2680, 2764, 2763
2566, 2680, 2681, 2765, 2764
2567, 2681, 2682, 2766, 2765
2568, 2682, 2683, 2767, 2766
2569, 2683, 2684, 2768, 2767
2570, 2684, 2685, 2769, 2768
2571, 2685, 2686, 2770, 2769
2572, 2686, 2687, 2771, 2770
2573, 2687, 2688, 2772, 2771
2574, 2689, 2690, 2774, 2773
2575, 2690, 2691, 2775, 2774
2576, 2691, 2692, 2776, 2775
2577, 2692, 2693, 2777, 2776
2578, 2693, 2694, 2778, 2777
2579, 2694, 2695, 2779, 2778
2580, 2695, 2696, 2780, 2779
2581, 2696, 2697, 2781, 2780
2582, 2697, 2698, 2782, 2781
2583, 2698, 2699, 2783, 2782
2584, 2699, 2700, 2784, 2783
2585, 2700, 2701, 2785, 2784
2586, 2701, 2702, 2786, 2785
2587, 2702, 2703, 2787, 2786
2588, 2703, 2704, 2788, 2787
2589, 2704, 2705, 2789, 2788
2590, 2705, 2706, 2790, 2789
2591, 2706, 2707, 2791, 2790
2592, 2707, 2708, 2792, 2791
2593, 2708, 2709, 2793, 2792
2594, 2709, 2710, 2794, 2793
2595, 2710, 2711, 2795, 2794
2596, 2711, 2712, 2796, 2795
2597, 2712, 2713, 2797, 2796
2598, 2713, 2714, 2798, 2797
2599, 2714, 2715, 2799, 2798
2600, 2715, 2716, 2800, 2799
2601, 2716, 2717, 2801, 2800
2602, 2717, 2718, 2802, 2801
2603, 2718, 2719, 2803, 2802
2604, 2719, 2720, 2804, 2803
2605, 2720, 2721, 2805, 2804
2606, 2721, 2722, 2806, 2805
2607, 2722, 2723, 2807, 2806
2608, 2723, 2724, 2808, 2807
2609, 2724, 2725, 2809, 2808
2610, 2725, 2726, 2810, 2809
2611, 2726, 2727, 2811, 2810
2612, 2727, 2728, 2812, 2811
2613, 2728, 2729, 2813, 2812
2614, 2729, 2730, 2814, 2813
2615, 2730, 2731, 2815, 2814
2616, 2731, 2732, 2816, 2815
2617, 2732, 2733, 2817, 2816
2618, 2733, 2734, 2818, 2817
2619, 2734, 2735, 2819, 2818
2620, 2735, 2736, 2820, 2819
2621, 2736, 2737, 2821, 2820
2622, 2737, 2738, 2822, 2821
2623, 2738, 2739, 2823, 2822
2624, 2739, 2740, 2824, 2823
2625, 2740, 2741, 2825, 2824
2626, 2741, 2742, 2826, 2825
2627, 2742, 2743, 2827, 2826
2628, 2743, 2744, 2828, 2827
2629, 2744, 2745, 2829, 2828
2630, 2745, 2746, 2830, 2829
2631, 2746, 2747, 2831, 2830
2632, 2747, 2748, 2832, 2831
2633, 2748, 2749, 2833, 2832
2634, 2749, 2750, 2834, 2833
2635, 2750, 2751, 2835, 2834
2636, 2751, 2752, 2836, 2835
2637, 2752, 2753, 2837, 2836
2638, 2753, 2754, 2838, 2837
2639, 2754, 2755, 2839, 2838
2640, 2755, 2756, 2840, 2839
2641, 2756, 2757, 2841, 2840
2642, 2757, 2758, 2842, 2841
2643, 2758, 2759, 2843, 2842
2644, 2759, 2760, 2844, 2843
2645, 2760, 2761, 2845, 2844
2646, 2761, 2762, 2846, 2845
2647, 2762, 2763, 2847, 2846
2648, 2763, 2764, 2848, 2847
2649, 2764, 2765, 2849, 2848
2650, 2765, 2766, 2850, 2849
2651, 2766, 2767, 2851, 2850
2652, 2767, 2768, 2852, 2851
2653, 2768, 2769, 2853, 2852
2654, 2769, 2770, 2854, 2853
2655, 2770, 2771, 2855, 2854
2656, 2771, 2772, 2856, 2855
2657, 2773, 2774, 2858, 2857
2658, 2774, 2775, 2859, 2858
2659, 2775, 2776, 2860, 2859
2660, 2776, 2777, 2861, 2860
2661, 2777, 2778, 2862, 2861
2662, 2778, 2779, 2863, 2862
2663, 2779, 2780, 2864, 2863
2664, 2780, 2781, 2865, 2864
2665, 2781, 2782, 2866, 2865
2666, 2782, 2783, 2867, 2866
2667, 2783, 2784, 2868, 2867
2668, 2784, 2785, 2869, 2868
2669, 2785, 2786, 2870, 2869
2670, 2786, 2787, 2871, 2870
2671, 2787, 2788, 2872, 2871
2672, 2788, 2789, 2873, 2872
2673, 2789, 2790, 2874, 2873
2674, 2790, 2791, 2875, 2874
2675, 2791, 2792, 2876, 2875
2676, 2792, 2793, 2877, 2876
2677, 2793, 2794, 2878, 2877
2678, 2794, 2795, 2879, 2878
2679, 2795, 2796, 2880, 2879
2680, 2796, 2797, 2881, 2880
2681, 2797, 2798, 2882, 2881
2682, 2798, 2799, 2883, 2882
2683, 2799, 2800, 2884, 2883
2684, 2800, 2801, 2885, 2884
2685, 2801, 2802, 2886, 2885
2686, 2802, 2803, 2887, 2886
2687, 2803, 2804, 2888, 2887
2688, 2804, 2805, 2889, 2888
2689, 2805, 2806, 2890, 2889
2690, 2806, 2807, 2891, 2890
2691, 2807, 2808, 2892, 2891
2692, 2808, 2809, 2893, 2892
2693, 2809, 2810, 2894, 2893
2694, 2810, 2811, 2895, 2894
2695, 2811, 2812, 2896, 2895
2696, 2812, 2813, 2897, 2896
2697, 2813, 2814, 2898, 2897
2698, 2814, 2815, 2899, 2898
2699, 2815, 2816, 2900, 2899
2700, 2816, 2817, 2901, 2900
2701, 2817, 2818, 2902, 2901
2702, 2818, 2819, 2903, 2902
2703, 2819, 2820, 2904, 2903
2704, 2820, 2821, 2905, 2904
2705, 2821, 2822, 2906, 2905
2706, 2822, 2823, 2907, 2906
2707, 2823, 2824, 2908, 2907
2708, 2824, 2825, 2909, 2908
2709, 2825, 2826, 2910, 2909
2710, 2826, 2827, 2911, 2910
2711, 2827, 2828, 2912, 2911
2712, 2828, 2829, 2913, 2912
2713, 2829, 2830, 2914, 2913
2714, 2830, 2831, 2915, 2914
2715, 2831, 2832, 2916, 2915
2716, 2832, 2833, 2917, 2916
2717, 2833, 2834, 2918, 2917
2718, 2834, 2835, 2919, 2918
2719, 2835, 2836, 2920, 2919
2720, 2836, 2837, 2921, 2920
2721, 2837, 2838, 2922, 2921
2722, 2838, 2839, 2923, 2922
2723, 2839, 2840, 2924, 2923
2724, 2840, 2841, 2925, 2924
2725, 2841, 2842, 2926, 2925
2726, 2842, 2843, 2927, 2926
2727, 2843, 2844, 2928, 2927
2728, 2844, 2845, 2929, 2928
2729, 2845, 2846, 2930, 2929
2730, 2846, 2847, 2931, 2930
2731, 2847, 2848, 2932, 2931
2732, 2848, 2849, 2933, 2932
2733, 2849, 2850, 2934, 2933
2734, 2850, 2851, 2935, 2934
2735, 2851, 2852, 2936, 2935
2736, 2852, 2853, 2937, 2936
2737, 2853, 2854, 2938, 2937
2738, 2854, 2855, 2939, 2938
2739, 2855, 2856, 2940, 2939
2740, 2857, 2858, 2942, 2941
2741, 2858, 2859, 2943, 2942
2742, 2859, 2860, 2944, 2943
2743, 2860, 2861, 2945, 2944
2744, 2861, 2862, 2946, 2945
2745, 2862, 2863, 2947, 2946
2746, 2863, 2864, 2948, 2947
2747, 2864, 2865, 2949, 2948
2748, 2865, 2866, 2950, 2949
2749, 2866, 2867, 2951, 2950
2750, 2867, 2868, 2952, 2951
2751, 2868, 2869, 2953, 2952
2752, 2869, 2870, 2954, 2953
2753, 2870, 2871, 2955, 2954
2754, 2871, 2872, 2956, 2955
2755, 2872, 2873, 2957, 2956
2756, 2873, 2874, 2958, 2957
2757, 2874, 2875, 2959, 2958
2758, 2875, 2876, 2960, 2959
2759, 2876, 2877, 2961, 2960
2760, 2877, 2878, 2962, 2961
2761, 2878, 2879, 2963, 2962
2762, 2879, 2880, 2964, 2963
2763, 2880, 2881, 2965, 2964
2764, 2881, 2882, 2966, 2965
2765, 2882, 2883, 2967, 2966
2766, 2883, 2884, 2968, 2967
2767, 2884, 2885, 2969, 2968
2768, 2885, 2886, 2970, 2969
2769, 2886, 2887, 2971, 2970
2770, 2887, 2888, 2972, 2971
2771, 2888, 2889, 2973, 2972
2772, 2889, 2890, 2974, 2973
2773, 2890, 2891, 2975, 2974
2774, 2891, 2892, 2976, 2975
2775, 2892, 2893, 2977, 2976
2776, 2893, 2894, 2978, 2977
2777, 2894, 2895, 2979, 2978
2778, 2895, 2896, 2980, 2979
2779, 2896, 2897, 2981, 2980
2780, 2897, 2898, 2982, 2981
2781, 2898, 2899, 2983, 2982
2782, 2899, 2900, 2984, 2983
2783, 2900, 2901, 2985, 2984
2784, 2901, 2902, 2986, 2985
2785, 2902, 2903, 2987, 2986
2786, 2903, 2904, 2988, 2987
2787, 2904, 2905, 2989, 2988
2788, 2905, 2906, 2990, 2989
2789, 2906, 2907, 2991, 2990
2790, 2907, 2908, 2992, 2991
2791, 2908, 2909, 2993, 2992
2792, 2909, 2910, 2994, 2993
2793, 2910, 2911, 2995, 2994
2794, 2911, 2912, 2996, 2995
2795, 2912, 2913, 2997, 2996
2796, 2913, 2914, 2998, 2997
2797, 2914, 2915, 2999, 2998
2798, 2915, 2916, 3000, 2999
2799, 2916, 2917, 3001, 3000
2800, 2917, 2918, 3002, 3001
2801, 2918, 2919, 3003, 3002
2804, 2921, 2922, 3006, 3005
2805, 2922, 2923, 3007, 3006
2806, 2923, 2924, 3008, 3007
2807, 2924, 2925, 3009, 3008
2808, 2925, 2926, 3010, 3009
2809, 2926, 2927, 3011, 3010
2810, 2927, 2928, 3012, 3011
2811, 2928, 2929, 3013, 3012
2814, 2931, 2932, 3016, 3015
2815, 2932, 2933, 3017, 3016
2816, 2933, 2934, 3018, 3017
2817, 2934, 2935, 3019, 3018
2818, 2935, 2936, 3020, 3019
2819, 2936, 2937, 3021, 3020
2820, 2937, 2938, 3022, 3021
2821, 2938, 2939, 3023, 3022
*ELEMENT, TYPE=CPE4R, ELSET=TOOLE
2823, 3025, 3026, 3033, 3032
2824, 3032, 3033, 3040, 3039
2825, 3039, 3040, 3047, 3046
2828, 3060, 3061, 3068, 3067
2831, 3040, 3041, 3048, 3047
2834, 3061, 3062, 3069, 3068
2837, 3041, 3042, 3049, 3048
2838, 3048, 3049, 3056, 3055
2839, 3055, 3056, 3063, 3062
2840, 3062, 3063, 3070, 3069
2841, 3028, 3029, 3036, 3035
2842, 3035, 3036, 3043, 3042
2843, 3042, 3043, 3050, 3049
2844, 3049, 3050, 3057, 3056
2847, 3029, 3030, 3037, 3036
2850, 3050, 3051, 3058, 3057
2853, 3030, 3031, 3038, 3037
2856, 3051, 3052, 3059, 3058
2857, 3058, 3059, 3066, 3065
2858, 3065, 3066, 3073, 3072
*MATERIAL, NAME=STEEL45
*ELASTIC
210000.0, 0.3
*PLASTIC, HARDENING=JOHNSON COOK
553.1, 600.8, 0.234, 1.0, 1800.0, 293.0
*RATE DEPENDENT, TYPE=JOHNSON COOK
0.0134, 1.
*DENSITY
7.85e-09
*MATERIAL, NAME=TOOLMAT
*ELASTIC
600000.0, 0.22
*DENSITY
1.5e-08
*SOLID SECTION, ELSET=WORK, MATERIAL=STEEL45
1.
*SOLID SECTION, ELSET=CUTLAYER, MATERIAL=STEEL45
1.
*SOLID SECTION, ELSET=TOOLE, MATERIAL=TOOLMAT
1.
*BOUNDARY
1, 3073, 3, 3
*NSET, NSET=WBOT
1, 2, 3, 4, 5, 6, 7, 8, 9, 10, 11, 12, 13, 14, 15, 16
17, 18, 19, 20, 21, 22, 23, 24, 25, 26, 27, 28, 29, 30, 31, 32
33, 34, 35, 36, 37, 38, 39, 40, 41, 42, 43, 44, 45, 46, 47, 48
49, 50, 51, 52, 53, 54, 55, 56, 57, 58, 59, 60, 61, 62, 63, 64
65, 66, 67, 68, 69, 70, 71, 72, 73, 74, 75, 76, 77, 78, 79, 80
81, 82, 83, 84

*BOUNDARY
WBOT, 1, 2
*NSET, NSET=WLEFT
85, 169, 253, 337, 421, 505, 589, 673, 757, 841, 925, 1009, 1093, 1177, 1261, 1345
1429, 1513, 1597, 1681, 1765, 1849, 1933, 2017, 2101, 2185, 2269, 2353, 2437, 2521

*BOUNDARY
WLEFT, 1, 1
*NSET, NSET=TOOLTOP
3031, 3038, 3045, 3052, 3059, 3066, 3073

*AMPLITUDE, NAME=TOOLVEL, TIME=TOTAL TIME
0.0, 0.0, 0.00018, 1.0
*BOUNDARY, AMPLITUDE=TOOLVEL
TOOLTOP, 1, 1, -0.6
TOOLTOP, 2, 2, 0.
