*NODE
1, 0.0, 0.0, 0.
2, 0.05, 0.0, 0.
3, 0.1, 0.0, 0.
4, 0.15000000000000002, 0.0, 0.
5, 0.2, 0.0, 0.
6, 0.25, 0.0, 0.
7, 0.30000000000000004, 0.0, 0.
8, 0.35000000000000003, 0.0, 0.
9, 0.4, 0.0, 0.
10, 0.45, 0.0, 0.
11, 0.5, 0.0, 0.
12, 0.55, 0.0, 0.
13, 0.6000000000000001, 0.0, 0.
14, 0.65, 0.0, 0.
15, 0.7000000000000001, 0.0, 0.
16, 0.75, 0.0, 0.
17, 0.8, 0.0, 0.
18, 0.8500000000000001, 0.0, 0.
19, 0.9, 0.0, 0.
20, 0.9500000000000001, 0.0, 0.
21, 1.0, 0.0, 0.
22, 1.05, 0.0, 0.
23, 1.1, 0.0, 0.
24, 1.1500000000000001, 0.0, 0.
25, 1.2000000000000002, 0.0, 0.
26, 1.25, 0.0, 0.
27, 1.3, 0.0, 0.
28, 1.35, 0.0, 0.
29, 1.4000000000000001, 0.0, 0.
30, 1.4500000000000002, 0.0, 0.
31, 1.5, 0.0, 0.
32, 1.55, 0.0, 0.
33, 1.6, 0.0, 0.
34, 1.6500000000000001, 0.0, 0.
35, 1.7000000000000002, 0.0, 0.
36, 1.75, 0.0, 0.
37, 1.8, 0.0, 0.
38, 1.85, 0.0, 0.
39, 1.9000000000000001, 0.0, 0.
40, 1.9500000000000002, 0.0, 0.
41, 2.0, 0.0, 0.
42, 2.0500000000000003, 0.0, 0.
43, 2.1, 0.0, 0.
44, 2.15, 0.0, 0.
45, 2.2, 0.0, 0.
46, 2.25, 0.0, 0.
47, 2.3000000000000003, 0.0, 0.
48, 2.35, 0.0, 0.
49, 2.4000000000000004, 0.0, 0.
50, 2.45, 0.0, 0.
51, 2.5, 0.0, 0.
52, 0.0, 0.05, 0.
53, 0.05, 0.05, 0.
54, 0.1, 0.05, 0.
55, 0.15000000000000002, 0.05, 0.
56, 0.2, 0.05, 0.
57, 0.25, 0.05, 0.
58, 0.30000000000000004, 0.05, 0.
59, 0.35000000000000003, 0.05, 0.
60, 0.4, 0.05, 0.
61, 0.45, 0.05, 0.
62, 0.5, 0.05, 0.
63, 0.55, 0.05, 0.
64, 0.6000000000000001, 0.05, 0.
65, 0.65, 0.05, 0.
66, 0.7000000000000001, 0.05, 0.
67, 0.75, 0.05, 0.
68, 0.8, 0.05, 0.
69, 0.8500000000000001, 0.05, 0.
70, 0.9, 0.05, 0.
71, 0.9500000000000001, 0.05, 0.
72, 1.0, 0.05, 0.
73, 1.05, 0.05, 0.
74, 1.1, 0.05, 0.
75, 1.1500000000000001, 0.05, 0.
76, 1.2000000000000002, 0.05, 0.
77, 1.25, 0.05, 0.
78, 1.3, 0.05, 0.
79, 1.35, 0.05, 0.
80, 1.4000000000000001, 0.05, 0.
81, 1.4500000000000002, 0.05, 0.
82, 1.5, 0.05, 0.
83, 1.55, 0.05, 0.
84, 1.6, 0.05, 0.
85, 1.6500000000000001, 0.05, 0.
86, 1.7000000000000002, 0.05, 0.
87, 1.75, 0.05, 0.
88, 1.8, 0.05, 0.
89, 1.85, 0.05, 0.
90, 1.9000000000000001, 0.05, 0.
91, 1.9500000000000002, 0.05, 0.
92, 2.0, 0.05, 0.
93, 2.0500000000000003, 0.05, 0.
94, 2.1, 0.05, 0.
95, 2.15, 0.05, 0.
96, 2.2, 0.05, 0.
97, 2.25, 0.05, 0.
98, 2.3000000000000003, 0.05, 0.
99, 2.35, 0.05, 0.
100, 2.4000000000000004, 0.05, 0.
101, 2.45, 0.05, 0.
102, 2.5, 0.05, 0.
103, 0.0, 0.1, 0.
104, 0.05, 0.1, 0.
105, 0.1, 0.1, 0.
106, 0.15000000000000002, 0.1, 0.
107, 0.2, 0.1, 0.
108, 0.25, 0.1, 0.
109, 0.30000000000000004, 0.1, 0.
110, 0.35000000000000003, 0.1, 0.
111, 0.4, 0.1, 0.
112, 0.45, 0.1, 0.
113, 0.5, 0.1, 0.
114, 0.55, 0.1, 0.
115, 0.6000000000000001, 0.1, 0.
116, 0.65, 0.1, 0.
117, 0.7000000000000001, 0.1, 0.
118, 0.75, 0.1, 0.
119, 0.8, 0.1, 0.
120, 0.8500000000000001, 0.1, 0.
121, 0.9, 0.1, 0.
122, 0.9500000000000001, 0.1, 0.
123, 1.0, 0.1, 0.
124, 1.05, 0.1, 0.
125, 1.1, 0.1, 0.
126, 1.1500000000000001, 0.1, 0.
127, 1.2000000000000002, 0.1, 0.
128, 1.25, 0.1, 0.
129, 1.3, 0.1, 0.
130, 1.35, 0.1, 0.
131, 1.4000000000000001, 0.1, 0.
132, 1.4500000000000002, 0.1, 0.
133, 1.5, 0.1, 0.
134, 1.55, 0.1, 0.
135, 1.6, 0.1, 0.
136, 1.6500000000000001, 0.1, 0.
137, 1.7000000000000002, 0.1, 0.
138, 1.75, 0.1, 0.
139, 1.8, 0.1, 0.
140, 1.85, 0.1, 0.
141, 1.9000000000000001, 0.1, 0.
142, 1.9500000000000002, 0.1, 0.
143, 2.0, 0.1, 0.
144, 2.0500000000000003, 0.1, 0.
145, 2.1, 0.1, 0.
146, 2.15, 0.1, 0.
147, 2.2, 0.1, 0.
148, 2.25, 0.1, 0.
149, 2.3000000000000003, 0.1, 0.
150, 2.35, 0.1, 0.
151, 2.4000000000000004, 0.1, 0.
152, 2.45, 0.1, 0.
153, 2.5, 0.1, 0.
154, 0.0, 0.15000000000000002, 0.
155, 0.05, 0.15000000000000002, 0.
156, 0.1, 0.15000000000000002, 0.
157, 0.15000000000000002, 0.15000000000000002, 0.
158, 0.2, 0.15000000000000002, 0.
159, 0.25, 0.15000000000000002, 0.
160, 0.30000000000000004, 0.15000000000000002, 0.
161, 0.35000000000000003, 0.15000000000000002, 0.
162, 0.4, 0.15000000000000002, 0.
163, 0.45, 0.15000000000000002, 0.
164, 0.5, 0.15000000000000002, 0.
165, 0.55, 0.15000000000000002, 0.
166, 0.6000000000000001, 0.15000000000000002, 0.
167, 0.65, 0.15000000000000002, 0.
168, 0.7000000000000001, 0.15000000000000002, 0.
169, 0.75, 0.15000000000000002, 0.
170, 0.8, 0.15000000000000002, 0.
171, 0.8500000000000001, 0.15000000000000002, 0.
172, 0.9, 0.15000000000000002, 0.
173, 0.9500000000000001, 0.15000000000000002, 0.
174, 1.0, 0.15000000000000002, 0.
175, 1.05, 0.15000000000000002, 0.
176, 1.1, 0.15000000000000002, 0.
177, 1.1500000000000001, 0.15000000000000002, 0.
178, 1.2000000000000002, 0.15000000000000002, 0.
179, 1.25, 0.15000000000000002, 0.
180, 1.3, 0.15000000000000002, 0.
181, 1.35, 0.15000000000000002, 0.
182, 1.4000000000000001, 0.15000000000000002, 0.
183, 1.4500000000000002, 0.15000000000000002, 0.
184, 1.5, 0.15000000000000002, 0.
185, 1.55, 0.15000000000000002, 0.
186, 1.6, 0.15000000000000002, 0.
187, 1.6500000000000001, 0.15000000000000002, 0.
188, 1.7000000000000002, 0.15000000000000002, 0.
189, 1.75, 0.15000000000000002, 0.
190, 1.8, 0.15000000000000002, 0.
191, 1.85, 0.15000000000000002, 0.
192, 1.9000000000000001, 0.15000000000000002, 0.
193, 1.9500000000000002, 0.15000000000000002, 0.
194, 2.0, 0.15000000000000002, 0.
195, 2.0500000000000003, 0.15000000000000002, 0.
196, 2.1, 0.15000000000000002, 0.
197, 2.15, 0.15000000000000002, 0.
198, 2.2, 0.15000000000000002, 0.
199, 2.25, 0.15000000000000002, 0.
200, 2.3000000000000003, 0.15000000000000002, 0.
201, 2.35, 0.15000000000000002, 0.
202, 2.4000000000000004, 0.15000000000000002, 0.
203, 2.45, 0.15000000000000002, 0.
204, 2.5, 0.15000000000000002, 0.
205, 0.0, 0.2, 0.
206, 0.05, 0.2, 0.
207, 0.1, 0.2, 0.
208, 0.15000000000000002, 0.2, 0.
209, 0.2, 0.2, 0.
210, 0.25, 0.2, 0.
211, 0.30000000000000004, 0.2, 0.
212, 0.35000000000000003, 0.2, 0.
213, 0.4, 0.2, 0.
214, 0.45, 0.2, 0.
215, 0.5, 0.2, 0.
216, 0.55, 0.2, 0.
217, 0.6000000000000001, 0.2, 0.
218, 0.65, 0.2, 0.
219, 0.7000000000000001, 0.2, 0.
220, 0.75, 0.2, 0.
221, 0.8, 0.2, 0.
222, 0.8500000000000001, 0.2, 0.
223, 0.9, 0.2, 0.
224, 0.9500000000000001, 0.2, 0.
225, 1.0, 0.2, 0.
226, 1.05, 0.2, 0.
227, 1.1, 0.2, 0.
228, 1.1500000000000001, 0.2, 0.
229, 1.2000000000000002, 0.2, 0.
230, 1.25, 0.2, 0.
231, 1.3, 0.2, 0.
232, 1.35, 0.2, 0.
233, 1.4000000000000001, 0.2, 0.
234, 1.4500000000000002, 0.2, 0.
235, 1.5, 0.2, 0.
236, 1.55, 0.2, 0.
237, 1.6, 0.2, 0.
238, 1.6500000000000001, 0.2, 0.
239, 1.7000000000000002, 0.2, 0.
240, 1.75, 0.2, 0.
241, 1.8, 0.2, 0.
242, 1.85, 0.2, 0.
243, 1.9000000000000001, 0.2, 0.
244, 1.9500000000000002, 0.2, 0.
245, 2.0, 0.2, 0.
246, 2.0500000000000003, 0.2, 0.
247, 2.1, 0.2, 0.
248, 2.15, 0.2, 0.
249, 2.2, 0.2, 0.
250, 2.25, 0.2, 0.
251, 2.3000000000000003, 0.2, 0.
252, 2.35, 0.2, 0.
253, 2.4000000000000004, 0.2, 0.
254, 2.45, 0.2, 0.
255, 2.5, 0.2, 0.
256, 0.0, 0.25, 0.
257, 0.05, 0.25, 0.
258, 0.1, 0.25, 0.
259, 0.15000000000000002, 0.25, 0.
260, 0.2, 0.25, 0.
261, 0.25, 0.25, 0.
262, 0.30000000000000004, 0.25, 0.
263, 0.35000000000000003, 0.25, 0.
264, 0.4, 0.25, 0.
265, 0.45, 0.25, 0.
266, 0.5, 0.25, 0.
267, 0.55, 0.25, 0.
268, 0.6000000000000001, 0.25, 0.
269, 0.65, 0.25, 0.
270, 0.7000000000000001, 0.25, 0.
271, 0.75, 0.25, 0.
272, 0.8, 0.25, 0.
273, 0.8500000000000001, 0.25, 0.
274, 0.9, 0.25, 0.
275, 0.9500000000000001, 0.25, 0.
276, 1.0, 0.25, 0.
277, 1.05, 0.25, 0.
278, 1.1, 0.25, 0.
279, 1.1500000000000001, 0.25, 0.
280, 1.2000000000000002, 0.25, 0.
281, 1.25, 0.25, 0.
282, 1.3, 0.25, 0.
283, 1.35, 0.25, 0.
284, 1.4000000000000001, 0.25, 0.
285, 1.4500000000000002, 0.25, 0.
286, 1.5, 0.25, 0.
287, 1.55, 0.25, 0.
288, 1.6, 0.25, 0.
289, 1.6500000000000001, 0.25, 0.
290, 1.7000000000000002, 0.25, 0.
291, 1.75, 0.25, 0.
292, 1.8, 0.25, 0.
293, 1.85, 0.25, 0.
294, 1.9000000000000001, 0.25, 0.
295, 1.9500000000000002, 0.25, 0.
296, 2.0, 0.25, 0.
297, 2.0500000000000003, 0.25, 0.
298, 2.1, 0.25, 0.
299, 2.15, 0.25, 0.
300, 2.2, 0.25, 0.
301, 2.25, 0.25, 0.
302, 2.3000000000000003, 0.25, 0.
303, 2.35, 0.25, 0.
304, 2.4000000000000004, 0.25, 0.
305, 2.45, 0.25, 0.
306, 2.5, 0.25, 0.
307, 0.0, 0.30000000000000004, 0.
308, 0.05, 0.30000000000000004, 0.
309, 0.1, 0.30000000000000004, 0.
310, 0.15000000000000002, 0.30000000000000004, 0.
311, 0.2, 0.30000000000000004, 0.
312, 0.25, 0.30000000000000004, 0.
313, 0.30000000000000004, 0.30000000000000004, 0.
314, 0.35000000000000003, 0.30000000000000004, 0.
315, 0.4, 0.30000000000000004, 0.
316, 0.45, 0.30000000000000004, 0.
317, 0.5, 0.30000000000000004, 0.
318, 0.55, 0.30000000000000004, 0.
319, 0.6000000000000001, 0.30000000000000004, 0.
320, 0.65, 0.30000000000000004, 0.
321, 0.7000000000000001, 0.30000000000000004, 0.
322, 0.75, 0.30000000000000004, 0.
323, 0.8, 0.30000000000000004, 0.
324, 0.8500000000000001, 0.30000000000000004, 0.
325, 0.9, 0.30000000000000004, 0.
326, 0.9500000000000001, 0.30000000000000004, 0.
327, 1.0, 0.30000000000000004, 0.
328, 1.05, 0.30000000000000004, 0.
329, 1.1, 0.30000000000000004, 0.
330, 1.1500000000000001, 0.30000000000000004, 0.
331, 1.2000000000000002, 0.30000000000000004, 0.
332, 1.25, 0.30000000000000004, 0.
333, 1.3, 0.30000000000000004, 0.
334, 1.35, 0.30000000000000004, 0.
335, 1.4000000000000001, 0.30000000000000004, 0.
336, 1.4500000000000002, 0.30000000000000004, 0.
337, 1.5, 0.30000000000000004, 0.
338, 1.55, 0.30000000000000004, 0.
339, 1.6, 0.30000000000000004, 0.
340, 1.6500000000000001, 0.30000000000000004, 0.
341, 1.7000000000000002, 0.30000000000000004, 0.
342, 1.75, 0.30000000000000004, 0.
343, 1.8, 0.30000000000000004, 0.
344, 1.85, 0.30000000000000004, 0.
345, 1.9000000000000001, 0.30000000000000004, 0.
346, 1.9500000000000002, 0.30000000000000004, 0.
347, 2.0, 0.30000000000000004, 0.
348, 2.0500000000000003, 0.30000000000000004, 0.
349, 2.1, 0.30000000000000004, 0.
350, 2.15, 0.30000000000000004, 0.
351, 2.2, 0.30000000000000004, 0.
352, 2.25, 0.30000000000000004, 0.
353, 2.3000000000000003, 0.30000000000000004, 0.
354, 2.35, 0.30000000000000004, 0.
355, 2.4000000000000004, 0.30000000000000004, 0.
356, 2.45, 0.30000000000000004, 0.
357, 2.5, 0.30000000000000004, 0.
358, 0.0, 0.35000000000000003, 0.
359, 0.05, 0.35000000000000003, 0.
360, 0.1, 0.35000000000000003, 0.
361, 0.15000000000000002, 0.35000000000000003, 0.
362, 0.2, 0.35000000000000003, 0.
363, 0.25, 0.35000000000000003, 0.
364, 0.30000000000000004, 0.35000000000000003, 0.
365, 0.35000000000000003, 0.35000000000000003, 0.
366, 0.4, 0.35000000000000003, 0.
367, 0.45, 0.35000000000000003, 0.
368, 0.5, 0.35000000000000003, 0.
369, 0.55, 0.35000000000000003, 0.
370, 0.6000000000000001, 0.35000000000000003, 0.
371, 0.65, 0.35000000000000003, 0.
372, 0.7000000000000001, 0.35000000000000003, 0.
373, 0.75, 0.35000000000000003, 0.
374, 0.8, 0.35000000000000003, 0.
375, 0.8500000000000001, 0.35000000000000003, 0.
376, 0.9, 0.35000000000000003, 0.
377, 0.9500000000000001, 0.35000000000000003, 0.
378, 1.0, 0.35000000000000003, 0.
379, 1.05, 0.35000000000000003, 0.
380, 1.1, 0.35000000000000003, 0.
381, 1.1500000000000001, 0.35000000000000003, 0.
382, 1.2000000000000002, 0.35000000000000003, 0.
383, 1.25, 0.35000000000000003, 0.
384, 1.3, 0.35000000000000003, 0.
385, 1.35, 0.35000000000000003, 0.
386, 1.4000000000000001, 0.35000000000000003, 0.
387, 1.4500000000000002, 0.35000000000000003, 0.
388, 1.5, 0.35000000000000003, 0.
389, 1.55, 0.35000000000000003, 0.
390, 1.6, 0.35000000000000003, 0.
391, 1.6500000000000001, 0.35000000000000003, 0.
392, 1.7000000000000002, 0.35000000000000003, 0.
393, 1.75, 0.35000000000000003, 0.
394, 1.8, 0.35000000000000003, 0.
395, 1.85, 0.35000000000000003, 0.
396, 1.9000000000000001, 0.35000000000000003, 0.
397, 1.9500000000000002, 0.35000000000000003, 0.
398, 2.0, 0.35000000000000003, 0.
399, 2.0500000000000003, 0.35000000000000003, 0.
400, 2.1, 0.35000000000000003, 0.
401, 2.15, 0.35000000000000003, 0.
402, 2.2, 0.35000000000000003, 0.
403, 2.25, 0.35000000000000003, 0.
404, 2.3000000000000003, 0.35000000000000003, 0.
405, 2.35, 0.35000000000000003, 0.
406, 2.4000000000000004, 0.35000000000000003, 0.
407, 2.45, 0.35000000000000003, 0.
408, 2.5, 0.35000000000000003, 0.
409, 0.0, 0.4, 0.
410, 0.05, 0.4, 0.
411, 0.1, 0.4, 0.
412, 0.15000000000000002, 0.4, 0.
413, 0.2, 0.4, 0.
414, 0.25, 0.4, 0.
415, 0.30000000000000004, 0.4, 0.
416, 0.35000000000000003, 0.4, 0.
417, 0.4, 0.4, 0.
418, 0.45, 0.4, 0.
419, 0.5, 0.4, 0.
420, 0.55, 0.4, 0.
421, 0.6000000000000001, 0.4, 0.
422, 0.65, 0.4, 0.
423, 0.7000000000000001, 0.4, 0.
424, 0.75, 0.4, 0.
425, 0.8, 0.4, 0.
426, 0.8500000000000001, 0.4, 0.
427, 0.9, 0.4, 0.
428, 0.9500000000000001, 0.4, 0.
429, 1.0, 0.4, 0.
430, 1.05, 0.4, 0.
431, 1.1, 0.4, 0.
432, 1.1500000000000001, 0.4, 0.
433, 1.2000000000000002, 0.4, 0.
434, 1.25, 0.4, 0.
435, 1.3, 0.4, 0.
436, 1.35, 0.4, 0.
437, 1.4000000000000001, 0.4, 0.
438, 1.4500000000000002, 0.4, 0.
439, 1.5, 0.4, 0.
440, 1.55, 0.4, 0.
441, 1.6, 0.4, 0.
442, 1.6500000000000001, 0.4, 0.
443, 1.7000000000000002, 0.4, 0.
444, 1.75, 0.4, 0.
445, 1.8, 0.4, 0.
446, 1.85, 0.4, 0.
447, 1.9000000000000001, 0.4, 0.
448, 1.9500000000000002, 0.4, 0.
449, 2.0, 0.4, 0.
450, 2.0500000000000003, 0.4, 0.
451, 2.1, 0.4, 0.
452, 2.15, 0.4, 0.
453, 2.2, 0.4, 0.
454, 2.25, 0.4, 0.
455, 2.3000000000000003, 0.4, 0.
456, 2.35, 0.4, 0.
457, 2.4000000000000004, 0.4, 0.
458, 2.45, 0.4, 0.
459, 2.5, 0.4, 0.
460, 0.0, 0.45, 0.
461, 0.05, 0.45, 0.
462, 0.1, 0.45, 0.
463, 0.15000000000000002, 0.45, 0.
464, 0.2, 0.45, 0.
465, 0.25, 0.45, 0.
466, 0.30000000000000004, 0.45, 0.
467, 0.35000000000000003, 0.45, 0.
468, 0.4, 0.45, 0.
469, 0.45, 0.45, 0.
470, 0.5, 0.45, 0.
471, 0.55, 0.45, 0.
472, 0.6000000000000001, 0.45, 0.
473, 0.65, 0.45, 0.
474, 0.7000000000000001, 0.45, 0.
475, 0.75, 0.45, 0.
476, 0.8, 0.45, 0.
477, 0.8500000000000001, 0.45, 0.
478, 0.9, 0.45, 0.
479, 0.9500000000000001, 0.45, 0.
480, 1.0, 0.45, 0.
481, 1.05, 0.45, 0.
482, 1.1, 0.45, 0.
483, 1.1500000000000001, 0.45, 0.
484, 1.2000000000000002, 0.45, 0.
485, 1.25, 0.45, 0.
486, 1.3, 0.45, 0.
487, 1.35, 0.45, 0.
488, 1.4000000000000001, 0.45, 0.
489, 1.4500000000000002, 0.45, 0.
490, 1.5, 0.45, 0.
491, 1.55, 0.45, 0.
492, 1.6, 0.45, 0.
493, 1.6500000000000001, 0.45, 0.
494, 1.7000000000000002, 0.45, 0.
495, 1.75, 0.45, 0.
496, 1.8, 0.45, 0.
497, 1.85, 0.45, 0.
498, 1.9000000000000001, 0.45, 0.
499, 1.9500000000000002, 0.45, 0.
500, 2.0, 0.45, 0.
501, 2.0500000000000003, 0.45, 0.
502, 2.1, 0.45, 0.
503, 2.15, 0.45, 0.
504, 2.2, 0.45, 0.
505, 2.25, 0.45, 0.
506, 2.3000000000000003, 0.45, 0.
507, 2.35, 0.45, 0.
508, 2.4000000000000004, 0.45, 0.
509, 2.45, 0.45, 0.
510, 2.5, 0.45, 0.
511, 0.0, 0.5, 0.
512, 0.05, 0.5, 0.
513, 0.1, 0.5, 0.
514, 0.15000000000000002, 0.5, 0.
515, 0.2, 0.5, 0.
516, 0.25, 0.5, 0.
517, 0.30000000000000004, 0.5, 0.
518, 0.35000000000000003, 0.5, 0.
519, 0.4, 0.5, 0.
520, 0.45, 0.5, 0.
521, 0.5, 0.5, 0.
522, 0.55, 0.5, 0.
523, 0.6000000000000001, 0.5, 0.
524, 0.65, 0.5, 0.
525, 0.7000000000000001, 0.5, 0.
526, 0.75, 0.5, 0.
527, 0.8, 0.5, 0.
528, 0.8500000000000001, 0.5, 0.
529, 0.9, 0.5, 0.
530, 0.9500000000000001, 0.5, 0.
531, 1.0, 0.5, 0.
532, 1.05, 0.5, 0.
533, 1.1, 0.5, 0.
534, 1.1500000000000001, 0.5, 0.
535, 1.2000000000000002, 0.5, 0.
536, 1.25, 0.5, 0.
537, 1.3, 0.5, 0.
538, 1.35, 0.5, 0.
539, 1.4000000000000001, 0.5, 0.
540, 1.4500000000000002, 0.5, 0.
541, 1.5, 0.5, 0.
542, 1.55, 0.5, 0.
543, 1.6, 0.5, 0.
544, 1.6500000000000001, 0.5, 0.
545, 1.7000000000000002, 0.5, 0.
546, 1.75, 0.5, 0.
547, 1.8, 0.5, 0.
548, 1.85, 0.5, 0.
549, 1.9000000000000001, 0.5, 0.
550, 1.9500000000000002, 0.5, 0.
551, 2.0, 0.5, 0.
552, 2.0500000000000003, 0.5, 0.
553, 2.1, 0.5, 0.
554, 2.15, 0.5, 0.
555, 2.2, 0.5, 0.
556, 2.25, 0.5, 0.
557, 2.3000000000000003, 0.5, 0.
558, 2.35, 0.5, 0.
559, 2.4000000000000004, 0.5, 0.
560, 2.45, 0.5, 0.
561, 2.5, 0.5, 0.
562, 0.0, 0.55, 0.
563, 0.05, 0.55, 0.
564, 0.1, 0.55, 0.
565, 0.15000000000000002, 0.55, 0.
566, 0.2, 0.55, 0.
567, 0.25, 0.55, 0.
568, 0.30000000000000004, 0.55, 0.
569, 0.35000000000000003, 0.55, 0.
570, 0.4, 0.55, 0.
571, 0.45, 0.55, 0.
572, 0.5, 0.55, 0.
573, 0.55, 0.55, 0.
574, 0.6000000000000001, 0.55, 0.
575, 0.65, 0.55, 0.
576, 0.7000000000000001, 0.55, 0.
577, 0.75, 0.55, 0.
578, 0.8, 0.55, 0.
579, 0.8500000000000001, 0.55, 0.
580, 0.9, 0.55, 0.
581, 0.9500000000000001, 0.55, 0.
582, 1.0, 0.55, 0.
583, 1.05, 0.55, 0.
584, 1.1, 0.55, 0.
585, 1.1500000000000001, 0.55, 0.
586, 1.2000000000000002, 0.55, 0.
587, 1.25, 0.55, 0.
588, 1.3, 0.55, 0.
589, 1.35, 0.55, 0.
590, 1.4000000000000001, 0.55, 0.
591, 1.4500000000000002, 0.55, 0.
592, 1.5, 0.55, 0.
593, 1.55, 0.55, 0.
594, 1.6, 0.55, 0.
595, 1.6500000000000001, 0.55, 0.
596, 1.7000000000000002, 0.55, 0.
597, 1.75, 0.55, 0.
598, 1.8, 0.55, 0.
599, 1.85, 0.55, 0.
600, 1.9000000000000001, 0.55, 0.
601, 1.9500000000000002, 0.55, 0.
602, 2.0, 0.55, 0.
603, 2.0500000000000003, 0.55, 0.
604, 2.1, 0.55, 0.
605, 2.15, 0.55, 0.
606, 2.2, 0.55, 0.
607, 2.25, 0.55, 0.
608, 2.3000000000000003, 0.55, 0.
609, 2.35, 0.55, 0.
610, 2.4000000000000004, 0.55, 0.
611, 2.45, 0.55, 0.
612, 2.5, 0.55, 0.
613, 0.0, 0.6000000000000001, 0.
614, 0.05, 0.6000000000000001, 0.
615, 0.1, 0.6000000000000001, 0.
616, 0.15000000000000002, 0.6000000000000001, 0.
617, 0.2, 0.6000000000000001, 0.
618, 0.25, 0.6000000000000001, 0.
619, 0.30000000000000004, 0.6000000000000001, 0.
620, 0.35000000000000003, 0.6000000000000001, 0.
621, 0.4, 0.6000000000000001, 0.
622, 0.45, 0.6000000000000001, 0.
623, 0.5, 0.6000000000000001, 0.
624, 0.55, 0.6000000000000001, 0.
625, 0.6000000000000001, 0.6000000000000001, 0.
626, 0.65, 0.6000000000000001, 0.
627, 0.7000000000000001, 0.6000000000000001, 0.
628, 0.75, 0.6000000000000001, 0.
629, 0.8, 0.6000000000000001, 0.
630, 0.8500000000000001, 0.6000000000000001, 0.
631, 0.9, 0.6000000000000001, 0.
632, 0.9500000000000001, 0.6000000000000001, 0.
633, 1.0, 0.6000000000000001, 0.
634, 1.05, 0.6000000000000001, 0.
635, 1.1, 0.6000000000000001, 0.
636, 1.1500000000000001, 0.6000000000000001, 0.
637, 1.2000000000000002, 0.6000000000000001, 0.
638, 1.25, 0.6000000000000001, 0.
639, 1.3, 0.6000000000000001, 0.
640, 1.35, 0.6000000000000001, 0.
641, 1.4000000000000001, 0.6000000000000001, 0.
642, 1.4500000000000002, 0.6000000000000001, 0.
643, 1.5, 0.6000000000000001, 0.
644, 1.55, 0.6000000000000001, 0.
645, 1.6, 0.6000000000000001, 0.
646, 1.6500000000000001, 0.6000000000000001, 0.
647, 1.7000000000000002, 0.6000000000000001, 0.
648, 1.75, 0.6000000000000001, 0.
649, 1.8, 0.6000000000000001, 0.
650, 1.85, 0.6000000000000001, 0.
651, 1.9000000000000001, 0.6000000000000001, 0.
652, 1.9500000000000002, 0.6000000000000001, 0.
653, 2.0, 0.6000000000000001, 0.
654, 2.0500000000000003, 0.6000000000000001, 0.
655, 2.1, 0.6000000000000001, 0.
656, 2.15, 0.6000000000000001, 0.
657, 2.2, 0.6000000000000001, 0.
658, 2.25, 0.6000000000000001, 0.
659, 2.3000000000000003, 0.6000000000000001, 0.
660, 2.35, 0.6000000000000001, 0.
661, 2.4000000000000004, 0.6000000000000001, 0.
662, 2.45, 0.6000000000000001, 0.
663, 2.5, 0.6000000000000001, 0.
664, 0.0, 0.65, 0.
665, 0.05, 0.65, 0.
666, 0.1, 0.65, 0.
667, 0.15000000000000002, 0.65, 0.
668, 0.2, 0.65, 0.
669, 0.25, 0.65, 0.
670, 0.30000000000000004, 0.65, 0.
671, 0.35000000000000003, 0.65, 0.
672, 0.4, 0.65, 0.
673, 0.45, 0.65, 0.
674, 0.5, 0.65, 0.
675, 0.55, 0.65, 0.
676, 0.6000000000000001, 0.65, 0.
677, 0.65, 0.65, 0.
678, 0.7000000000000001, 0.65, 0.
679, 0.75, 0.65, 0.
680, 0.8, 0.65, 0.
681, 0.8500000000000001, 0.65, 0.
682, 0.9, 0.65, 0.
683, 0.9500000000000001, 0.65, 0.
684, 1.0, 0.65, 0.
685, 1.05, 0.65, 0.
686, 1.1, 0.65, 0.
687, 1.1500000000000001, 0.65, 0.
688, 1.2000000000000002, 0.65, 0.
689, 1.25, 0.65, 0.
690, 1.3, 0.65, 0.
691, 1.35, 0.65, 0.
692, 1.4000000000000001, 0.65, 0.
693, 1.4500000000000002, 0.65, 0.
694, 1.5, 0.65, 0.
695, 1.55, 0.65, 0.
696, 1.6, 0.65, 0.
697, 1.6500000000000001, 0.65, 0.
698, 1.7000000000000002, 0.65, 0.
699, 1.75, 0.65, 0.
700, 1.8, 0.65, 0.
701, 1.85, 0.65, 0.
702, 1.9000000000000001, 0.65, 0.
703, 1.9500000000000002, 0.65, 0.
704, 2.0, 0.65, 0.
705, 2.0500000000000003, 0.65, 0.
706, 2.1, 0.65, 0.
707, 2.15, 0.65, 0.
708, 2.2, 0.65, 0.
709, 2.25, 0.65, 0.
710, 2.3000000000000003, 0.65, 0.
711, 2.35, 0.65, 0.
712, 2.4000000000000004, 0.65, 0.
713, 2.45, 0.65, 0.
714, 2.5, 0.65, 0.
715, 0.0, 0.7000000000000001, 0.
716, 0.05, 0.7000000000000001, 0.
717, 0.1, 0.7000000000000001, 0.
718, 0.15000000000000002, 0.7000000000000001, 0.
719, 0.2, 0.7000000000000001, 0.
720, 0.25, 0.7000000000000001, 0.
721, 0.30000000000000004, 0.7000000000000001, 0.
722, 0.35000000000000003, 0.7000000000000001, 0.
723, 0.4, 0.7000000000000001, 0.
724, 0.45, 0.7000000000000001, 0.
725, 0.5, 0.7000000000000001, 0.
726, 0.55, 0.7000000000000001, 0.
727, 0.6000000000000001, 0.7000000000000001, 0.
728, 0.65, 0.7000000000000001, 0.
729, 0.7000000000000001, 0.7000000000000001, 0.
730, 0.75, 0.7000000000000001, 0.
731, 0.8, 0.7000000000000001, 0.
732, 0.8500000000000001, 0.7000000000000001, 0.
733, 0.9, 0.7000000000000001, 0.
734, 0.9500000000000001, 0.7000000000000001, 0.
735, 1.0, 0.7000000000000001, 0.
736, 1.05, 0.7000000000000001, 0.
737, 1.1, 0.7000000000000001, 0.
738, 1.1500000000000001, 0.7000000000000001, 0.
739, 1.2000000000000002, 0.7000000000000001, 0.
740, 1.25, 0.7000000000000001, 0.
741, 1.3, 0.7000000000000001, 0.
742, 1.35, 0.7000000000000001, 0.
743, 1.4000000000000001, 0.7000000000000001, 0.
744, 1.4500000000000002, 0.7000000000000001, 0.
745, 1.5, 0.7000000000000001, 0.
746, 1.55, 0.7000000000000001, 0.
747, 1.6, 0.7000000000000001, 0.
748, 1.6500000000000001, 0.7000000000000001, 0.
749, 1.7000000000000002, 0.7000000000000001, 0.
750, 1.75, 0.7000000000000001, 0.
751, 1.8, 0.7000000000000001, 0.
752, 1.85, 0.7000000000000001, 0.
753, 1.9000000000000001, 0.7000000000000001, 0.
754, 1.9500000000000002, 0.7000000000000001, 0.
755, 2.0, 0.7000000000000001, 0.
756, 2.0500000000000003, 0.7000000000000001, 0.
757, 2.1, 0.7000000000000001, 0.
758, 2.15, 0.7000000000000001, 0.
759, 2.2, 0.7000000000000001, 0.
760, 2.25, 0.7000000000000001, 0.
761, 2.3000000000000003, 0.7000000000000001, 0.
762, 2.35, 0.7000000000000001, 0.
763, 2.4000000000000004, 0.7000000000000001, 0.
764, 2.45, 0.7000000000000001, 0.
765, 2.5, 0.7000000000000001, 0.
766, 0.0, 0.75, 0.
767, 0.05, 0.75, 0.
768, 0.1, 0.75, 0.
769, 0.15000000000000002, 0.75, 0.
770, 0.2, 0.75, 0.
771, 0.25, 0.75, 0.
772, 0.30000000000000004, 0.75, 0.
773, 0.35000000000000003, 0.75, 0.
774, 0.4, 0.75, 0.
775, 0.45, 0.75, 0.
776, 0.5, 0.75, 0.
777, 0.55, 0.75, 0.
778, 0.6000000000000001, 0.75, 0.
779, 0.65, 0.75, 0.
780, 0.7000000000000001, 0.75, 0.
781, 0.75, 0.75, 0.
782, 0.8, 0.75, 0.
783, 0.8500000000000001, 0.75, 0.
784, 0.9, 0.75, 0.
785, 0.9500000000000001, 0.75, 0.
786, 1.0, 0.75, 0.
787, 1.05, 0.75, 0.
788, 1.1, 0.75, 0.
789, 1.1500000000000001, 0.75, 0.
790, 1.2000000000000002, 0.75, 0.
791, 1.25, 0.75, 0.
792, 1.3, 0.75, 0.
793, 1.35, 0.75, 0.
794, 1.4000000000000001, 0.75, 0.
795, 1.4500000000000002, 0.75, 0.
796, 1.5, 0.75, 0.
797, 1.55, 0.75, 0.
798, 1.6, 0.75, 0.
799, 1.6500000000000001, 0.75, 0.
800, 1.7000000000000002, 0.75, 0.
801, 1.75, 0.75, 0.
802, 1.8, 0.75, 0.
803, 1.85, 0.75, 0.
804, 1.9000000000000001, 0.75, 0.
805, 1.9500000000000002, 0.75, 0.
806, 2.0, 0.75, 0.
807, 2.0500000000000003, 0.75, 0.
808, 2.1, 0.75, 0.
809, 2.15, 0.75, 0.
810, 2.2, 0.75, 0.
811, 2.25, 0.75, 0.
812, 2.3000000000000003, 0.75, 0.
813, 2.35, 0.75, 0.
814, 2.4000000000000004, 0.75, 0.
815, 2.45, 0.75, 0.
816, 2.5, 0.75, 0.
817, 0.0, 0.8, 0.
818, 0.05, 0.8, 0.
819, 0.1, 0.8, 0.
820, 0.15000000000000002, 0.8, 0.
821, 0.2, 0.8, 0.
822, 0.25, 0.8, 0.
823, 0.30000000000000004, 0.8, 0.
824, 0.35000000000000003, 0.8, 0.
825, 0.4, 0.8, 0.
826, 0.45, 0.8, 0.
827, 0.5, 0.8, 0.
828, 0.55, 0.8, 0.
829, 0.6000000000000001, 0.8, 0.
830, 0.65, 0.8, 0.
831, 0.7000000000000001, 0.8, 0.
832, 0.75, 0.8, 0.
833, 0.8, 0.8, 0.
834, 0.8500000000000001, 0.8, 0.
835, 0.9, 0.8, 0.
836, 0.9500000000000001, 0.8, 0.
837, 1.0, 0.8, 0.
838, 1.05, 0.8, 0.
839, 1.1, 0.8, 0.
840, 1.1500000000000001, 0.8, 0.
841, 1.2000000000000002, 0.8, 0.
842, 1.25, 0.8, 0.
843, 1.3, 0.8, 0.
844, 1.35, 0.8, 0.
845, 1.4000000000000001, 0.8, 0.
846, 1.4500000000000002, 0.8, 0.
847, 1.5, 0.8, 0.
848, 1.55, 0.8, 0.
849, 1.6, 0.8, 0.
850, 1.6500000000000001, 0.8, 0.
851, 1.7000000000000002, 0.8, 0.
852, 1.75, 0.8, 0.
853, 1.8, 0.8, 0.
854, 1.85, 0.8, 0.
855, 1.9000000000000001, 0.8, 0.
856, 1.9500000000000002, 0.8, 0.
857, 2.0, 0.8, 0.
858, 2.0500000000000003, 0.8, 0.
859, 2.1, 0.8, 0.
860, 2.15, 0.8, 0.
861, 2.2, 0.8, 0.
862, 2.25, 0.8, 0.
863, 2.3000000000000003, 0.8, 0.
864, 2.35, 0.8, 0.
865, 2.4000000000000004, 0.8, 0.
866, 2.45, 0.8, 0.
867, 2.5, 0.8, 0.
868, 0.0, 0.8500000000000001, 0.
869, 0.05, 0.8500000000000001, 0.
870, 0.1, 0.8500000000000001, 0.
871, 0.15000000000000002, 0.8500000000000001, 0.
872, 0.2, 0.8500000000000001, 0.
873, 0.25, 0.8500000000000001, 0.
874, 0.30000000000000004, 0.8500000000000001, 0.
875, 0.35000000000000003, 0.8500000000000001, 0.
876, 0.4, 0.8500000000000001, 0.
877, 0.45, 0.8500000000000001, 0.
878, 0.5, 0.8500000000000001, 0.
879, 0.55, 0.8500000000000001, 0.
880, 0.6000000000000001, 0.8500000000000001, 0.
881, 0.65, 0.8500000000000001, 0.
882, 0.7000000000000001, 0.8500000000000001, 0.
883, 0.75, 0.8500000000000001, 0.
884, 0.8, 0.8500000000000001, 0.
885, 0.8500000000000001, 0.8500000000000001, 0.
886, 0.9, 0.8500000000000001, 0.
887, 0.9500000000000001, 0.8500000000000001, 0.
888, 1.0, 0.8500000000000001, 0.
889, 1.05, 0.8500000000000001, 0.
890, 1.1, 0.8500000000000001, 0.
891, 1.1500000000000001, 0.8500000000000001, 0.
892, 1.2000000000000002, 0.8500000000000001, 0.
893, 1.25, 0.8500000000000001, 0.
894, 1.3, 0.8500000000000001, 0.
895, 1.35, 0.8500000000000001, 0.
896, 1.4000000000000001, 0.8500000000000001, 0.
897, 1.4500000000000002, 0.8500000000000001, 0.
898, 1.5, 0.8500000000000001, 0.
899, 1.55, 0.8500000000000001, 0.
900, 1.6, 0.8500000000000001, 0.
901, 1.6500000000000001, 0.8500000000000001, 0.
902, 1.7000000000000002, 0.8500000000000001, 0.
903, 1.75, 0.8500000000000001, 0.
904, 1.8, 0.8500000000000001, 0.
905, 1.85, 0.8500000000000001, 0.
906, 1.9000000000000001, 0.8500000000000001, 0.
907, 1.9500000000000002, 0.8500000000000001, 0.
908, 2.0, 0.8500000000000001, 0.
909, 2.0500000000000003, 0.8500000000000001, 0.
910, 2.1, 0.8500000000000001, 0.
911, 2.15, 0.8500000000000001, 0.
912, 2.2, 0.8500000000000001, 0.
913, 2.25, 0.8500000000000001, 0.
914, 2.3000000000000003, 0.8500000000000001, 0.
915, 2.35, 0.8500000000000001, 0.
916, 2.4000000000000004, 0.8500000000000001, 0.
917, 2.45, 0.8500000000000001, 0.
918, 2.5, 0.8500000000000001, 0.
919, 0.0, 0.9, 0.
920, 0.05, 0.9, 0.
921, 0.1, 0.9, 0.
922, 0.15000000000000002, 0.9, 0.
923, 0.2, 0.9, 0.
924, 0.25, 0.9, 0.
925, 0.30000000000000004, 0.9, 0.
926, 0.35000000000000003, 0.9, 0.
927, 0.4, 0.9, 0.
928, 0.45, 0.9, 0.
929, 0.5, 0.9, 0.
930, 0.55, 0.9, 0.
931, 0.6000000000000001, 0.9, 0.
932, 0.65, 0.9, 0.
933, 0.7000000000000001, 0.9, 0.
934, 0.75, 0.9, 0.
935, 0.8, 0.9, 0.
936, 0.8500000000000001, 0.9, 0.
937, 0.9, 0.9, 0.
938, 0.9500000000000001, 0.9, 0.
939, 1.0, 0.9, 0.
940, 1.05, 0.9, 0.
941, 1.1, 0.9, 0.
942, 1.1500000000000001, 0.9, 0.
943, 1.2000000000000002, 0.9, 0.
944, 1.25, 0.9, 0.
945, 1.3, 0.9, 0.
946, 1.35, 0.9, 0.
947, 1.4000000000000001, 0.9, 0.
948, 1.4500000000000002, 0.9, 0.
949, 1.5, 0.9, 0.
950, 1.55, 0.9, 0.
951, 1.6, 0.9, 0.
952, 1.6500000000000001, 0.9, 0.
953, 1.7000000000000002, 0.9, 0.
954, 1.75, 0.9, 0.
955, 1.8, 0.9, 0.
956, 1.85, 0.9, 0.
957, 1.9000000000000001, 0.9, 0.
958, 1.9500000000000002, 0.9, 0.
959, 2.0, 0.9, 0.
960, 2.0500000000000003, 0.9, 0.
961, 2.1, 0.9, 0.
962, 2.15, 0.9, 0.
963, 2.2, 0.9, 0.
964, 2.25, 0.9, 0.
965, 2.3000000000000003, 0.9, 0.
966, 2.35, 0.9, 0.
967, 2.4000000000000004, 0.9, 0.
968, 2.45, 0.9, 0.
969, 2.5, 0.9, 0.
970, 1.5, 0.9, 0.
971, 1.55, 0.9, 0.
972, 1.6, 0.9, 0.
973, 1.6500000000000001, 0.9, 0.
974, 1.7000000000000002, 0.9, 0.
975, 1.75, 0.9, 0.
976, 1.8, 0.9, 0.
977, 1.85, 0.9, 0.
978, 1.9000000000000001, 0.9, 0.
979, 1.9500000000000002, 0.9, 0.
980, 2.0, 0.9, 0.
981, 2.0500000000000003, 0.9, 0.
982, 1.5, 0.9500000000000001, 0.
983, 1.55, 0.9500000000000001, 0.
984, 1.6, 0.9500000000000001, 0.
985, 1.6500000000000001, 0.9500000000000001, 0.
986, 1.7000000000000002, 0.9500000000000001, 0.
987, 1.75, 0.9500000000000001, 0.
988, 1.8, 0.9500000000000001, 0.
989, 1.85, 0.9500000000000001, 0.
990, 1.9000000000000001, 0.9500000000000001, 0.
991, 1.9500000000000002, 0.9500000000000001, 0.
992, 2.0, 0.9500000000000001, 0.
993, 2.0500000000000003, 0.9500000000000001, 0.
994, 1.5, 1.0, 0.
995, 1.55, 1.0, 0.
996, 1.6, 1.0, 0.
997, 1.6500000000000001, 1.0, 0.
998, 1.7000000000000002, 1.0, 0.
999, 1.75, 1.0, 0.
1000, 1.8, 1.0, 0.
1001, 1.85, 1.0, 0.
1002, 1.9000000000000001, 1.0, 0.
1003, 1.9500000000000002, 1.0, 0.
1004, 2.0, 1.0, 0.
1005, 2.0500000000000003, 1.0, 0.
1006, 2.05, 0.9, 0.
1007, 2.05, 1.0, 0.
1008, 2.05, 1.1, 0.
1009, 2.05, 1.2000000000000002, 0.
1010, 2.05, 1.3, 0.
1011, 2.05, 1.4, 0.
1012, 2.05, 1.5, 0.
1013, 2.15, 0.9122784560902905, 0.
1014, 2.15, 1.0122784560902904, 0.
1015, 2.15, 1.1122784560902905, 0.
1016, 2.15, 1.2122784560902904, 0.
1017, 2.15, 1.3122784560902905, 0.
1018, 2.15, 1.4122784560902906, 0.
1019, 2.15, 1.5122784560902907, 0.
1020, 2.25, 0.924556912180581, 0.
1021, 2.25, 1.024556912180581, 0.
1022, 2.25, 1.124556912180581, 0.
1023, 2.25, 1.224556912180581, 0.
1024, 2.25, 1.3245569121805811, 0.
1025, 2.25, 1.424556912180581, 0.
1026, 2.25, 1.524556912180581, 0.
1027, 2.3499999999999996, 0.9368353682708714, 0.
1028, 2.3499999999999996, 1.0368353682708715, 0.
1029, 2.3499999999999996, 1.1368353682708714, 0.
1030, 2.3499999999999996, 1.2368353682708715, 0.
1031, 2.3499999999999996, 1.3368353682708713, 0.
1032, 2.3499999999999996, 1.4368353682708714, 0.
1033, 2.3499999999999996, 1.5368353682708715, 0.
1034, 2.4499999999999997, 0.9491138243611619, 0.
1035, 2.4499999999999997, 1.049113824361162, 0.
1036, 2.4499999999999997, 1.1491138243611618, 0.
1037, 2.4499999999999997, 1.249113824361162, 0.
1038, 2.4499999999999997, 1.349113824361162, 0.
1039, 2.4499999999999997, 1.4491138243611619, 0.
1040, 2.4499999999999997, 1.549113824361162, 0.
1041, 2.55, 0.9613922804514523, 0.
1042, 2.55, 1.0613922804514524, 0.
1043, 2.55, 1.1613922804514523, 0.
1044, 2.55, 1.2613922804514524, 0.
1045, 2.55, 1.3613922804514522, 0.
1046, 2.55, 1.4613922804514523, 0.
1047, 2.55, 1.5613922804514524, 0.
1048, 2.65, 0.9736707365417427, 0.
1049, 2.65, 1.0736707365417428, 0.
1050, 2.65, 1.1736707365417427, 0.
1051, 2.65, 1.2736707365417428, 0.
1052, 2.65, 1.3736707365417429, 0.
1053, 2.65, 1.4736707365417427, 0.
1054, 2.65, 1.5736707365417428, 0.
*ELEMENT, TYPE=CPE4R, ELSET=WORK
1, 1, 2, 53, 52
2, 2, 3, 54, 53
3, 3, 4, 55, 54
4, 4, 5, 56, 55
5, 5, 6, 57, 56
6, 6, 7, 58, 57
7, 7, 8, 59, 58
8, 8, 9, 60, 59
9, 9, 10, 61, 60
10, 10, 11, 62, 61
11, 11, 12, 63, 62
12, 12, 13, 64, 63
13, 13, 14, 65, 64
14, 14, 15, 66, 65
15, 15, 16, 67, 66
16, 16, 17, 68, 67
17, 17, 18, 69, 68
18, 18, 19, 70, 69
19, 19, 20, 71, 70
20, 20, 21, 72, 71
21, 21, 22, 73, 72
22, 22, 23, 74, 73
23, 23, 24, 75, 74
24, 24, 25, 76, 75
25, 25, 26, 77, 76
26, 26, 27, 78, 77
27, 27, 28, 79, 78
28, 28, 29, 80, 79
29, 29, 30, 81, 80
30, 30, 31, 82, 81
31, 31, 32, 83, 82
32, 32, 33, 84, 83
33, 33, 34, 85, 84
34, 34, 35, 86, 85
35, 35, 36, 87, 86
36, 36, 37, 88, 87
37, 37, 38, 89, 88
38, 38, 39, 90, 89
39, 39, 40, 91, 90
40, 40, 41, 92, 91
41, 41, 42, 93, 92
42, 42, 43, 94, 93
43, 43, 44, 95, 94
44, 44, 45, 96, 95
45, 45, 46, 97, 96
46, 46, 47, 98, 97
47, 47, 48, 99, 98
48, 48, 49, 100, 99
49, 49, 50, 101, 100
50, 50, 51, 102, 101
51, 52, 53, 104, 103
52, 53, 54, 105, 104
53, 54, 55, 106, 105
54, 55, 56, 107, 106
55, 56, 57, 108, 107
56, 57, 58, 109, 108
57, 58, 59, 110, 109
58, 59, 60, 111, 110
59, 60, 61, 112, 111
60, 61, 62, 113, 112
61, 62, 63, 114, 113
62, 63, 64, 115, 114
63, 64, 65, 116, 115
64, 65, 66, 117, 116
65, 66, 67, 118, 117
66, 67, 68, 119, 118
67, 68, 69, 120, 119
68, 69, 70, 121, 120
69, 70, 71, 122, 121
70, 71, 72, 123, 122
71, 72, 73, 124, 123
72, 73, 74, 125, 124
73, 74, 75, 126, 125
74, 75, 76, 127, 126
75, 76, 77, 128, 127
76, 77, 78, 129, 128
77, 78, 79, 130, 129
78, 79, 80, 131, 130
79, 80, 81, 132, 131
80, 81, 82, 133, 132
81, 82, 83, 134, 133
82, 83, 84, 135, 134
83, 84, 85, 136, 135
84, 85, 86, 137, 136
85, 86, 87, 138, 137
86, 87, 88, 139, 138
87, 88, 89, 140, 139
88, 89, 90, 141, 140
89, 90, 91, 142, 141
90, 91, 92, 143, 142
91, 92, 93, 144, 143
92, 93, 94, 145, 144
93, 94, 95, 146, 145
94, 95, 96, 147, 146
95, 96, 97, 148, 147
96, 97, 98, 149, 148
97, 98, 99, 150, 149
98, 99, 100, 151, 150
99, 100, 101, 152, 151
100, 101, 102, 153, 152
101, 103, 104, 155, 154
102, 104, 105, 156, 155
103, 105, 106, 157, 156
104, 106, 107, 158, 157
105, 107, 108, 159, 158
106, 108, 109, 160, 159
107, 109, 110, 161, 160
108, 110, 111, 162, 161
109, 111, 112, 163, 162
110, 112, 113, 164, 163
111, 113, 114, 165, 164
112, 114, 115, 166, 165
113, 115, 116, 167, 166
114, 116, 117, 168, 167
115, 117, 118, 169, 168
116, 118, 119, 170, 169
117, 119, 120, 171, 170
118, 120, 121, 172, 171
119, 121, 122, 173, 172
120, 122, 123, 174, 173
121, 123, 124, 175, 174
122, 124, 125, 176, 175
123, 125, 126, 177, 176
124, 126, 127, 178, 177
125, 127, 128, 179, 178
126, 128, 129, 180, 179
127, 129, 130, 181, 180
128, 130, 131, 182, 181
129, 131, 132, 183, 182
130, 132, 133, 184, 183
131, 133, 134, 185, 184
132, 134, 135, 186, 185
133, 135, 136, 187, 186
134, 136, 137, 188, 187
135, 137, 138, 189, 188
136, 138, 139, 190, 189
137, 139, 140, 191, 190
138, 140, 141, 192, 191
139, 141, 142, 193, 192
140, 142, 143, 194, 193
141, 143, 144, 195, 194
142, 144, 145, 196, 195
143, 145, 146, 197, 196
144, 146, 147, 198, 197
145, 147, 148, 199, 198
146, 148, 149, 200, 199
147, 149, 150, 201, 200
148, 150, 151, 202, 201
149, 151, 152, 203, 202
150, 152, 153, 204, 203
151, 154, 155, 206, 205
152, 155, 156, 207, 206
153, 156, 157, 208, 207
154, 157, 158, 209, 208
155, 158, 159, 210, 209
156, 159, 160, 211, 210
157, 160, 161, 212, 211
158, 161, 162, 213, 212
159, 162, 163, 214, 213
160, 163, 164, 215, 214
161, 164, 165, 216, 215
162, 165, 166, 217, 216
163, 166, 167, 218, 217
164, 167, 168, 219, 218
165, 168, 169, 220, 219
166, 169, 170, 221, 220
167, 170, 171, 222, 221
168, 171, 172, 223, 222
169, 172, 173, 224, 223
170, 173, 174, 225, 224
171, 174, 175, 226, 225
172, 175, 176, 227, 226
173, 176, 177, 228, 227
174, 177, 178, 229, 228
175, 178, 179, 230, 229
176, 179, 180, 231, 230
177, 180, 181, 232, 231
178, 181, 182, 233, 232
179, 182, 183, 234, 233
180, 183, 184, 235, 234
181, 184, 185, 236, 235
182, 185, 186, 237, 236
183, 186, 187, 238, 237
184, 187, 188, 239, 238
185, 188, 189, 240, 239
186, 189, 190, 241, 240
187, 190, 191, 242, 241
188, 191, 192, 243, 242
189, 192, 193, 244, 243
190, 193, 194, 245, 244
191, 194, 195, 246, 245
192, 195, 196, 247, 246
193, 196, 197, 248, 247
194, 197, 198, 249, 248
195, 198, 199, 250, 249
196, 199, 200, 251, 250
197, 200, 201, 252, 251
198, 201, 202, 253, 252
199, 202, 203, 254, 253
200, 203, 204, 255, 254
201, 205, 206, 257, 256
202, 206, 207, 258, 257
203, 207, 208, 259, 258
204, 208, 209, 260, 259
205, 209, 210, 261, 260
206, 210, 211, 262, 261
207, 211, 212, 263, 262
208, 212, 213, 264, 263
209, 213, 214, 265, 264
210, 214, 215, 266, 265
211, 215, 216, 267, 266
212, 216, 217, 268, 267
213, 217, 218, 269, 268
214, 218, 219, 270, 269
215, 219, 220, 271, 270
216, 220, 221, 272, 271
217, 221, 222, 273, 272
218, 222, 223, 274, 273
219, 223, 224, 275, 274
220, 224, 225, 276, 275
221, 225, 226, 277, 276
222, 226, 227, 278, 277
223, 227, 228, 279, 278
224, 228, 229, 280, 279
225, 229, 230, 281, 280
226, 230, 231, 282, 281
227, 231, 232, 283, 282
228, 232, 233, 284, 283
229, 233, 234, 285, 284
230, 234, 235, 286, 285
231, 235, 236, 287, 286
232, 236, 237, 288, 287
233, 237, 238, 289, 288
234, 238, 239, 290, 289
235, 239, 240, 291, 290
236, 240, 241, 292, 291
237, 241, 242, 293, 292
238, 242, 243, 294, 293
239, 243, 244, 295, 294
240, 244, 245, 296, 295
241, 245, 246, 297, 296
242, 246, 247, 298, 297
243, 247, 248, 299, 298
244, 248, 249, 300, 299
245, 249, 250, 301, 300
246, 250, 251, 302, 301
247, 251, 252, 303, 302
248, 252, 253, 304, 303
249, 253, 254, 305, 304
250, 254, 255, 306, 305
251, 256, 257, 308, 307
252, 257, 258, 309, 308
253, 258, 259, 310, 309
254, 259, 260, 311, 310
255, 260, 261, 312, 311
256, 261, 262, 313, 312
257, 262, 263, 314, 313
258, 263, 264, 315, 314
259, 264, 265, 316, 315
260, 265, 266, 317, 316
261, 266, 267, 318, 317
262, 267, 268, 319, 318
263, 268, 269, 320, 319
264, 269, 270, 321, 320
265, 270, 271, 322, 321
266, 271, 272, 323, 322
267, 272, 273, 324, 323
268, 273, 274, 325, 324
269, 274, 275, 326, 325
270, 275, 276, 327, 326
271, 276, 277, 328, 327
272, 277, 278, 329, 328
273, 278, 279, 330, 329
274, 279, 280, 331, 330
275, 280, 281, 332, 331
276, 281, 282, 333, 332
277, 282, 283, 334, 333
278, 283, 284, 335, 334
279, 284, 285, 336, 335
280, 285, 286, 337, 336
281, 286, 287, 338, 337
282, 287, 288, 339, 338
283, 288, 289, 340, 339
284, 289, 290, 341, 340
285, 290, 291, 342, 341
286, 291, 292, 343, 342
287, 292, 293, 344, 343
288, 293, 294, 345, 344
289, 294, 295, 346, 345
290, 295, 296, 347, 346
291, 296, 297, 348, 347
292, 297, 298, 349, 348
293, 298, 299, 350, 349
294, 299, 300, 351, 350
295, 300, 301, 352, 351
296, 301, 302, 353, 352
297, 302, 303, 354, 353
298, 303, 304, 355, 354
299, 304, 305, 356, 355
300, 305, 306, 357, 356
301, 307, 308, 359, 358
302, 308, 309, 360, 359
303, 309, 310, 361, 360
304, 310, 311, 362, 361
305, 311, 312, 363, 362
306, 312, 313, 364, 363
307, 313, 314, 365, 364
308, 314, 315, 366, 365
309, 315, 316, 367, 366
310, 316, 317, 368, 367
311, 317, 318, 369, 368
312, 318, 319, 370, 369
313, 319, 320, 371, 370
314, 320, 321, 372, 371
315, 321, 322, 373, 372
316, 322, 323, 374, 373
317, 323, 324, 375, 374
318, 324, 325, 376, 375
319, 325, 326, 377, 376
320, 326, 327, 378, 377
321, 327, 328, 379, 378
322, 328, 329, 380, 379
323, 329, 330, 381, 380
324, 330, 331, 382, 381
325, 331, 332, 383, 382
326, 332, 333, 384, 383
327, 333, 334, 385, 384
328, 334, 335, 386, 385
329, 335, 336, 387, 386
330, 336, 337, 388, 387
331, 337, 338, 389, 388
332, 338, 339, 390, 389
333, 339, 340, 391, 390
334, 340, 341, 392, 391
335, 341, 342, 393, 392
336, 342, 343, 394, 393
337, 343, 344, 395, 394
338, 344, 345, 396, 395
339, 345, 346, 397, 396
340, 346, 347, 398, 397
341, 347, 348, 399, 398
342, 348, 349, 400, 399
343, 349, 350, 401, 400
344, 350, 351, 402, 401
345, 351, 352, 403, 402
346, 352, 353, 404, 403
347, 353, 354, 405, 404
348, 354, 355, 406, 405
349, 355, 356, 407, 406
350, 356, 357, 408, 407
351, 358, 359, 410, 409
352, 359, 360, 411, 410
353, 360, 361, 412, 411
354, 361, 362, 413, 412
355, 362, 363, 414, 413
356, 363, 364, 415, 414
357, 364, 365, 416, 415
358, 365, 366, 417, 416
359, 366, 367, 418, 417
360, 367, 368, 419, 418
361, 368, 369, 420, 419
362, 369, 370, 421, 420
363, 370, 371, 422, 421
364, 371, 372, 423, 422
365, 372, 373, 424, 423
366, 373, 374, 425, 424
367, 374, 375, 426, 425
368, 375, 376, 427, 426
369, 376, 377, 428, 427
370, 377, 378, 429, 428
371, 378, 379, 430, 429
372, 379, 380, 431, 430
373, 380, 381, 432, 431
374, 381, 382, 433, 432
375, 382, 383, 434, 433
376, 383, 384, 435, 434
377, 384, 385, 436, 435
378, 385, 386, 437, 436
379, 386, 387, 438, 437
380, 387, 388, 439, 438
381, 388, 389, 440, 439
382, 389, 390, 441, 440
383, 390, 391, 442, 441
384, 391, 392, 443, 442
385, 392, 393, 444, 443
386, 393, 394, 445, 444
387, 394, 395, 446, 445
388, 395, 396, 447, 446
389, 396, 397, 448, 447
390, 397, 398, 449, 448
391, 398, 399, 450, 449
392, 399, 400, 451, 450
393, 400, 401, 452, 451
394, 401, 402, 453, 452
395, 402, 403, 454, 453
396, 403, 404, 455, 454
397, 404, 405, 456, 455
398, 405, 406, 457, 456
399, 406, 407, 458, 457
400, 407, 408, 459, 458
401, 409, 410, 461, 460
402, 410, 411, 462, 461
403, 411, 412, 463, 462
404, 412, 413, 464, 463
405, 413, 414, 465, 464
406, 414, 415, 466, 465
407, 415, 416, 467, 466
408, 416, 417, 468, 467
409, 417, 418, 469, 468
410, 418, 419, 470, 469
411, 419, 420, 471, 470
412, 420, 421, 472, 471
413, 421, 422, 473, 472
414, 422, 423, 474, 473
415, 423, 424, 475, 474
416, 424, 425, 476, 475
417, 425, 426, 477, 476
418, 426, 427, 478, 477
419, 427, 428, 479, 478
420, 428, 429, 480, 479
421, 429, 430, 481, 480
422, 430, 431, 482, 481
423, 431, 432, 483, 482
424, 432, 433, 484, 483
425, 433, 434, 485, 484
426, 434, 435, 486, 485
427, 435, 436, 487, 486
428, 436, 437, 488, 487
429, 437, 438, 489, 488
430, 438, 439, 490, 489
431, 439, 440, 491, 490
432, 440, 441, 492, 491
433, 441, 442, 493, 492
434, 442, 443, 494, 493
435, 443, 444, 495, 494
436, 444, 445, 496, 495
437, 445, 446, 497, 496
438, 446, 447, 498, 497
439, 447, 448, 499, 498
440, 448, 449, 500, 499
441, 449, 450, 501, 500
442, 450, 451, 502, 501
443, 451, 452, 503, 502
444, 452, 453, 504, 503
445, 453, 454, 505, 504
446, 454, 455, 506, 505
447, 455, 456, 507, 506
448, 456, 457, 508, 507
449, 457, 458, 509, 508
450, 458, 459, 510, 509
451, 460, 461, 512, 511
452, 461, 462, 513, 512
453, 462, 463, 514, 513
454, 463, 464, 515, 514
455, 464, 465, 516, 515
456, 465, 466, 517, 516
457, 466, 467, 518, 517
458, 467, 468, 519, 518
459, 468, 469, 520, 519
460, 469, 470, 521, 520
461, 470, 471, 522, 521
462, 471, 472, 523, 522
463, 472, 473, 524, 523
464, 473, 474, 525, 524
465, 474, 475, 526, 525
466, 475, 476, 527, 526
467, 476, 477, 528, 527
468, 477, 478, 529, 528
469, 478, 479, 530, 529
470, 479, 480, 531, 530
471, 480, 481, 532, 531
472, 481, 482, 533, 532
473, 482, 483, 534, 533
474, 483, 484, 535, 534
475, 484, 485, 536, 535
476, 485, 486, 537, 536
477, 486, 487, 538, 537
478, 487, 488, 539, 538
479, 488, 489, 540, 539
480, 489, 490, 541, 540
481, 490, 491, 542, 541
482, 491, 492, 543, 542
483, 492, 493, 544, 543
484, 493, 494, 545, 544
485, 494, 495, 546, 545
486, 495, 496, 547, 546
487, 496, 497, 548, 547
488, 497, 498, 549, 548
489, 498, 499, 550, 549
490, 499, 500, 551, 550
491, 500, 501, 552, 551
492, 501, 502, 553, 552
493, 502, 503, 554, 553
494, 503, 504, 555, 554
495, 504, 505, 556, 555
496, 505, 506, 557, 556
497, 506, 507, 558, 557
498, 507, 508, 559, 558
499, 508, 509, 560, 559
500, 509, 510, 561, 560
501, 511, 512, 563, 562
502, 512, 513, 564, 563
503, 513, 514, 565, 564
504, 514, 515, 566, 565
505, 515, 516, 567, 566
506, 516, 517, 568, 567
507, 517, 518, 569, 568
508, 518, 519, 570, 569
509, 519, 520, 571, 570
510, 520, 521, 572, 571
511, 521, 522, 573, 572
512, 522, 523, 574, 573
513, 523, 524, 575, 574
514, 524, 525, 576, 575
515, 525, 526, 577, 576
516, 526, 527, 578, 577
517, 527, 528, 579, 578
518, 528, 529, 580, 579
519, 529, 530, 581, 580
520, 530, 531, 582, 581
521, 531, 532, 583, 582
522, 532, 533, 584, 583
523, 533, 534, 585, 584
524, 534, 535, 586, 585
525, 535, 536, 587, 586
526, 536, 537, 588, 587
527, 537, 538, 589, 588
528, 538, 539, 590, 589
529, 539, 540, 591, 590
530, 540, 541, 592, 591
531, 541, 542, 593, 592
532, 542, 543, 594, 593
533, 543, 544, 595, 594
534, 544, 545, 596, 595
535, 545, 546, 597, 596
536, 546, 547, 598, 597
537, 547, 548, 599, 598
538, 548, 549, 600, 599
539, 549, 550, 601, 600
540, 550, 551, 602, 601
541, 551, 552, 603, 602
542, 552, 553, 604, 603
543, 553, 554, 605, 604
544, 554, 555, 606, 605
545, 555, 556, 607, 606
546, 556, 557, 608, 607
547, 557, 558, 609, 608
548, 558, 559, 610, 609
549, 559, 560, 611, 610
550, 560, 561, 612, 611
551, 562, 563, 614, 613
552, 563, 564, 615, 614
553, 564, 565, 616, 615
554, 565, 566, 617, 616
555, 566, 567, 618, 617
556, 567, 568, 619, 618
557, 568, 569, 620, 619
558, 569, 570, 621, 620
559, 570, 571, 622, 621
560, 571, 572, 623, 622
561, 572, 573, 624, 623
562, 573, 574, 625, 624
563, 574, 575, 626, 625
564, 575, 576, 627, 626
565, 576, 577, 628, 627
566, 577, 578, 629, 628
567, 578, 579, 630, 629
568, 579, 580, 631, 630
569, 580, 581, 632, 631
570, 581, 582, 633, 632
571, 582, 583, 634, 633
572, 583, 584, 635, 634
573, 584, 585, 636, 635
574, 585, 586, 637, 636
575, 586, 587, 638, 637
576, 587, 588, 639, 638
577, 588, 589, 640, 639
578, 589, 590, 641, 640
579, 590, 591, 642, 641
580, 591, 592, 643, 642
581, 592, 593, 644, 643
582, 593, 594, 645, 644
583, 594, 595, 646, 645
584, 595, 596, 647, 646
585, 596, 597, 648, 647
586, 597, 598, 649, 648
587, 598, 599, 650, 649
588, 599, 600, 651, 650
589, 600, 601, 652, 651
590, 601, 602, 653, 652
591, 602, 603, 654, 653
592, 603, 604, 655, 654
593, 604, 605, 656, 655
594, 605, 606, 657, 656
595, 606, 607, 658, 657
596, 607, 608, 659, 658
597, 608, 609, 660, 659
598, 609, 610, 661, 660
599, 610, 611, 662, 661
600, 611, 612, 663, 662
601, 613, 614, 665, 664
602, 614, 615, 666, 665
603, 615, 616, 667, 666
604, 616, 617, 668, 667
605, 617, 618, 669, 668
606, 618, 619, 670, 669
607, 619, 620, 671, 670
608, 620, 621, 672, 671
609, 621, 622, 673, 672
610, 622, 623, 674, 673
611, 623, 624, 675, 674
612, 624, 625, 676, 675
613, 625, 626, 677, 676
614, 626, 627, 678, 677
615, 627, 628, 679, 678
616, 628, 629, 680, 679
617, 629, 630, 681, 680
618, 630, 631, 682, 681
619, 631, 632, 683, 682
620, 632, 633, 684, 683
621, 633, 634, 685, 684
622, 634, 635, 686, 685
623, 635, 636, 687, 686
624, 636, 637, 688, 687
625, 637, 638, 689, 688
626, 638, 639, 690, 689
627, 639, 640, 691, 690
628, 640, 641, 692, 691
629, 641, 642, 693, 692
630, 642, 643, 694, 693
631, 643, 644, 695, 694
632, 644, 645, 696, 695
633, 645, 646, 697, 696
634, 646, 647, 698, 697
635, 647, 648, 699, 698
636, 648, 649, 700, 699
637, 649, 650, 701, 700
638, 650, 651, 702, 701
639, 651, 652, 703, 702
640, 652, 653, 704, 703
641, 653, 654, 705, 704
642, 654, 655, 706, 705
643, 655, 656, 707, 706
644, 656, 657, 708, 707
645, 657, 658, 709, 708
646, 658, 659, 710, 709
647, 659, 660, 711, 710
648, 660, 661, 712, 711
649, 661, 662, 713, 712
650, 662, 663, 714, 713
651, 664, 665, 716, 715
652, 665, 666, 717, 716
653, 666, 667, 718, 717
654, 667, 668, 719, 718
655, 668, 669, 720, 719
656, 669, 670, 721, 720
657, 670, 671, 722, 721
658, 671, 672, 723, 722
659, 672, 673, 724, 723
660, 673, 674, 725, 724
661, 674, 675, 726, 725
662, 675, 676, 727, 726
663, 676, 677, 728, 727
664, 677, 678, 729, 728
665, 678, 679, 730, 729
666, 679, 680, 731, 730
667, 680, 681, 732, 731
668, 681, 682, 733, 732
669, 682, 683, 734, 733
670, 683, 684, 735, 734
671, 684, 685, 736, 735
672, 685, 686, 737, 736
673, 686, 687, 738, 737
674, 687, 688, 739, 738
675, 688, 689, 740, 739
676, 689, 690, 741, 740
677, 690, 691, 742, 741
678, 691, 692, 743, 742
679, 692, 693, 744, 743
680, 693, 694, 745, 744
681, 694, 695, 746, 745
682, 695, 696, 747, 746
683, 696, 697, 748, 747
684, 697, 698, 749, 748
685, 698, 699, 750, 749
686, 699, 700, 751, 750
687, 700, 701, 752, 751
688, 701, 702, 753, 752
689, 702, 703, 754, 753
690, 703, 704, 755, 754
691, 704, 705, 756, 755
692, 705, 706, 757, 756
693, 706, 707, 758, 757
694, 707, 708, 759, 758
695, 708, 709, 760, 759
696, 709, 710, 761, 760
697, 710, 711, 762, 761
698, 711, 712, 763, 762
699, 712, 713, 764, 763
700, 713, 714, 765, 764
701, 715, 716, 767, 766
702, 716, 717, 768, 767
703, 717, 718, 769, 768
704, 718, 719, 770, 769
705, 719, 720, 771, 770
706, 720, 721, 772, 771
707, 721, 722, 773, 772
708, 722, 723, 774, 773
709, 723, 724, 775, 774
710, 724, 725, 776, 775
711, 725, 726, 777, 776
712, 726, 727, 778, 777
713, 727, 728, 779, 778
714, 728, 729, 780, 779
715, 729, 730, 781, 780
716, 730, 731, 782, 781
717, 731, 732, 783, 782
718, 732, 733, 784, 783
719, 733, 734, 785, 784
720, 734, 735, 786, 785
721, 735, 736, 787, 786
722, 736, 737, 788, 787
723, 737, 738, 789, 788
724, 738, 739, 790, 789
725, 739, 740, 791, 790
726, 740, 741, 792, 791
727, 741, 742, 793, 792
728, 742, 743, 794, 793
729, 743, 744, 795, 794
730, 744, 745, 796, 795
731, 745, 746, 797, 796
732, 746, 747, 798, 797
733, 747, 748, 799, 798
734, 748, 749, 800, 799
735, 749, 750, 801, 800
736, 750, 751, 802, 801
737, 751, 752, 803, 802
738, 752, 753, 804, 803
739, 753, 754, 805, 804
740, 754, 755, 806, 805
741, 755, 756, 807, 806
742, 756, 757, 808, 807
743, 757, 758, 809, 808
744, 758, 759, 810, 809
745, 759, 760, 811, 810
746, 760, 761, 812, 811
747, 761, 762, 813, 812
748, 762, 763, 814, 813
749, 763, 764, 815, 814
750, 764, 765, 816, 815
751, 766, 767, 818, 817
752, 767, 768, 819, 818
753, 768, 769, 820, 819
754, 769, 770, 821, 820
755, 770, 771, 822, 821
756, 771, 772, 823, 822
757, 772, 773, 824, 823
758, 773, 774, 825, 824
759, 774, 775, 826, 825
760, 775, 776, 827, 826
761, 776, 777, 828, 827
762, 777, 778, 829, 828
763, 778, 779, 830, 829
764, 779, 780, 831, 830
765, 780, 781, 832, 831
766, 781, 782, 833, 832
767, 782, 783, 834, 833
768, 783, 784, 835, 834
769, 784, 785, 836, 835
770, 785, 786, 837, 836
771, 786, 787, 838, 837
772, 787, 788, 839, 838
773, 788, 789, 840, 839
774, 789, 790, 841, 840
775, 790, 791, 842, 841
776, 791, 792, 843, 842
777, 792, 793, 844, 843
778, 793, 794, 845, 844
779, 794, 795, 846, 845
780, 795, 796, 847, 846
781, 796, 797, 848, 847
782, 797, 798, 849, 848
783, 798, 799, 850, 849
784, 799, 800, 851, 850
785, 800, 801, 852, 851
786, 801, 802, 853, 852
787, 802, 803, 854, 853
788, 803, 804, 855, 854
789, 804, 805, 856, 855
790, 805, 806, 857, 856
791, 806, 807, 858, 857
792, 807, 808, 859, 858
793, 808, 809, 860, 859
794, 809, 810, 861, 860
795, 810, 811, 862, 861
796, 811, 812, 863, 862
797, 812, 813, 864, 863
798, 813, 814, 865, 864
799, 814, 815, 866, 865
800, 815, 816, 867, 866
801, 817, 818, 869, 868
802, 818, 819, 870, 869
803, 819, 820, 871, 870
804, 820, 821, 872, 871
805, 821, 822, 873, 872
806, 822, 823, 874, 873
807, 823, 824, 875, 874
808, 824, 825, 876, 875
809, 825, 826, 877, 876
810, 826, 827, 878, 877
811, 827, 828, 879, 878
812, 828, 829, 880, 879
813, 829, 830, 881, 880
814, 830, 831, 882, 881
815, 831, 832, 883, 882
816, 832, 833, 884, 883
817, 833, 834, 885, 884
818, 834, 835, 886, 885
819, 835, 836, 887, 886
820, 836, 837, 888, 887
821, 837, 838, 889, 888
822, 838, 839, 890, 889
823, 839, 840, 891, 890
824, 840, 841, 892, 891
825, 841, 842, 893, 892
826, 842, 843, 894, 893
827, 843, 844, 895, 894
828, 844, 845, 896, 895
829, 845, 846, 897, 896
830, 846, 847, 898, 897
831, 847, 848, 899, 898
832, 848, 849, 900, 899
833, 849, 850, 901, 900
834, 850, 851, 902, 901
835, 851, 852, 903, 902
836, 852, 853, 904, 903
837, 853, 854, 905, 904
838, 854, 855, 906, 905
839, 855, 856, 907, 906
840, 856, 857, 908, 907
841, 857, 858, 909, 908
842, 858, 859, 910, 909
843, 859, 860, 911, 910
844, 860, 861, 912, 911
845, 861, 862, 913, 912
846, 862, 863, 914, 913
847, 863, 864, 915, 914
848, 864, 865, 916, 915
849, 865, 866, 917, 916
850, 866, 867, 918, 917
851, 868, 869, 920, 919
852, 869, 870, 921, 920
853, 870, 871, 922, 921
854, 871, 872, 923, 922
855, 872, 873, 924, 923
856, 873, 874, 925, 924
857, 874, 875, 926, 925
858, 875, 876, 927, 926
859, 876, 877, 928, 927
860, 877, 878, 929, 928
861, 878, 879, 930, 929
862, 879, 880, 931, 930
863, 880, 881, 932, 931
864, 881, 882, 933, 932
865, 882, 883, 934, 933
866, 883, 884, 935, 934
867, 884, 885, 936, 935
868, 885, 886, 937, 936
869, 886, 887, 938, 937
870, 887, 888, 939, 938
871, 888, 889, 940, 939
872, 889, 890, 941, 940
873, 890, 891, 942, 941
874, 891, 892, 943, 942
875, 892, 893, 944, 943
876, 893, 894, 945, 944
877, 894, 895, 946, 945
878, 895, 896, 947, 946
879, 896, 897, 948, 947
880, 897, 898, 949, 948
881, 898, 899, 950, 949
882, 899, 900, 951, 950
883, 900, 901, 952, 951
884, 901, 902, 953, 952
885, 902, 903, 954, 953
886, 903, 904, 955, 954
887, 904, 905, 956, 955
888, 905, 906, 957, 956
889, 906, 907, 958, 957
890, 907, 908, 959, 958
891, 908, 909, 960, 959
892, 909, 910, 961, 960
893, 910, 911, 962, 961
894, 911, 912, 963, 962
895, 912, 913, 964, 963
896, 913, 914, 965, 964
897, 914, 915, 966, 965
898, 915, 916, 967, 966
899, 916, 917, 968, 967
900, 917, 918, 969, 968
*ELEMENT, TYPE=CPE4R, ELSET=CUTLAYER
901, 970, 971, 983, 982
902, 971, 972, 984, 983
903, 972, 973, 985, 984
904, 973, 974, 986, 985
905, 974, 975, 987, 986
906, 975, 976, 988, 987
907, 976, 977, 989, 988
908, 977, 978, 990, 989
909, 978, 979, 991, 990
910, 979, 980, 992, 991
911, 980, 981, 993, 992
912, 982, 983, 995, 994
913, 983, 984, 996, 995
914, 984, 985, 997, 996
915, 985, 986, 998, 997
916, 986, 987, 999, 998
917, 987, 988, 1000, 999
918, 988, 989, 1001, 1000
919, 989, 990, 1002, 1001
920, 990, 991, 1003, 1002
921, 991, 992, 1004, 1003
922, 992, 993, 1005, 1004
*ELEMENT, TYPE=CPE4R, ELSET=TOOLE
923, 1006, 1013, 1014, 1007
924, 1013, 1020, 1021, 1014
925, 1020, 1027, 1028, 1021
926, 1027, 1034, 1035, 1028
927, 1034, 1041, 1042, 1035
928, 1041, 1048, 1049, 1042
929, 1007, 1014, 1015, 1008
930, 1014, 1021, 1022, 1015
931, 1021, 1028, 1029, 1022
932, 1028, 1035, 1036, 1029
933, 1035, 1042, 1043, 1036
934, 1042, 1049, 1050, 1043
935, 1008, 1015, 1016, 1009
936, 1015, 1022, 1023, 1016
937, 1022, 1029, 1030, 1023
938, 1029, 1036, 1037, 1030
939, 1036, 1043, 1044, 1037
940, 1043, 1050, 1051, 1044
941, 1009, 1016, 1017, 1010
942, 1016, 1023, 1024, 1017
943, 1023, 1030, 1031, 1024
944, 1030, 1037, 1038, 1031
945, 1037, 1044, 1045, 1038
946, 1044, 1051, 1052, 1045
947, 1010, 1017, 1018, 1011
948, 1017, 1024, 1025, 1018
949, 1024, 1031, 1032, 1025
950, 1031, 1038, 1039, 1032
951, 1038, 1045, 1046, 1039
952, 1045, 1052, 1053, 1046
953, 1011, 1018, 1019, 1012
954, 1018, 1025, 1026, 1019
955, 1025, 1032, 1033, 1026
956, 1032, 1039, 1040, 1033
957, 1039, 1046, 1047, 1040
958, 1046, 1053, 1054, 1047
*MATERIAL, NAME=STEEL45
*ELASTIC
210000.0, 0.3
*PLASTIC, HARDENING=JOHNSON COOK
553.1, 600.8, 0.234, 1.0, 1800.0, 293.0
*RATE DEPENDENT, TYPE=JOHNSON COOK
0.0134, 1.
*DENSITY
7.85e-09
*MATERIAL, NAME=TOOLMAT
*ELASTIC
600000.0, 0.22
*DENSITY
1.5e-08
*SOLID SECTION, ELSET=WORK, MATERIAL=STEEL45
1.
*SOLID SECTION, ELSET=CUTLAYER, MATERIAL=STEEL45
1.
*SOLID SECTION, ELSET=TOOLE, MATERIAL=TOOLMAT
1.
*BOUNDARY
1, 1054, 3, 3
*NSET, NSET=WBOT
1, 2, 3, 4, 5, 6, 7, 8, 9, 10, 11, 12, 13, 14, 15, 16
17, 18, 19, 20, 21, 22, 23, 24, 25, 26, 27, 28, 29, 30, 31, 32
33, 34, 35, 36, 37, 38, 39, 40, 41, 42, 43, 44, 45, 46, 47, 48
49, 50, 51

*BOUNDARY
WBOT, 1, 2
*NSET, NSET=WLEFT
52, 103, 154, 205, 256, 307, 358, 409, 460, 511, 562, 613, 664, 715, 766, 817
868, 919

*BOUNDARY
WLEFT, 1, 1
*NSET, NSET=TOOLTOP
1012, 1019, 1026, 1033, 1040, 1047, 1054

*AMPLITUDE, NAME=TOOLVEL, TIME=TOTAL TIME
0.0, 0.0, 0.00018, 1.0
*BOUNDARY, AMPLITUDE=TOOLVEL
TOOLTOP, 1, 1, -0.3
TOOLTOP, 2, 2, 0.
*SURFACE, NAME=TOOLS, TYPE=ELEMENT
925, S4
955, S2
926, S4
956, S2
927, S4
957, S2
928, S4
958, S2
929, S4
959, S2
930, S4
960, S2
925, S1
930, S3
931, S1
936, S3
937, S1
942, S3
943, S1
948, S3
949, S1
954, S3
955, S1
960, S3
*SURFACE, NAME=WPS_CHIP, TYPE=ELEMENT
901, S3
902, S3
903, S3
904, S3
905, S3
906, S3
907, S3
908, S3
909, S3
910, S3
911, S3
912, S3
913, S3
914, S3
915, S3
916, S3
917, S3
918, S3
919, S3
920, S3
921, S3
922, S3
911, S2
901, S4
922, S2
912, S4
*SURFACE, NAME=WPS_SEAM, TYPE=ELEMENT
901, S1
902, S1
903, S1
904, S1
905, S1
906, S1
907, S1
908, S1
909, S1
910, S1
911, S1
912, S1
913, S1
914, S1
915, S1
916, S1
917, S1
918, S1
919, S1
920, S1
921, S1
922, S1
*SURFACE, NAME=WORK_TOP, TYPE=ELEMENT
851, S3
852, S3
853, S3
854, S3
855, S3
856, S3
857, S3
858, S3
859, S3
860, S3
861, S3
862, S3
863, S3
864, S3
865, S3
866, S3
867, S3
868, S3
869, S3
870, S3
871, S3
872, S3
873, S3
874, S3
875, S3
876, S3
877, S3
878, S3
879, S3
880, S3
881, S3
882, S3
883, S3
884, S3
885, S3
886, S3
887, S3
888, S3
889, S3
890, S3
891, S3
892, S3
893, S3
894, S3
895, S3
896, S3
897, S3
898, S3
899, S3
900, S3
*CONTACT PAIR, INTERACTION=FRIC, TYPE=NODE TO SURFACE
WPS_CHIP, TOOLS
*CONTACT PAIR, INTERACTION=FRIC, TYPE=NODE TO SURFACE
WPS_SEAM, WORK_TOP
*SURFACE INTERACTION, NAME=FRIC
*SURFACE BEHAVIOR, PRESSURE-OVERCLOSURE=LINEAR
2000000.
*FRICTION
0.9
*STEP, NLGEOM, INC=300000
*DYNAMIC, EXPLICIT
1.E-9, 0.00018
*NODE PRINT, NSET=TOOLTOP, FREQUENCY=1000
RF
*NODE FILE, NSET=TOOLTOP
RF
*EL FILE
S
*END STEP
